61
Coordinates from ORCA-job monomer_hf_opt E -1466.577359217394
  O      -2.739775      2.707549      1.878703
  C      -2.481245      1.540676      1.706238
  C      -3.447835      0.399250      1.586087
  H      -4.043810      0.359547      2.494167
  C      -2.571488     -0.839051      1.411424
  C      -2.980624     -1.498259      0.067993
  C      -2.112520     -1.109534     -1.086649
  C      -1.424049     -1.967583     -1.819551
  C      -4.412207     -0.983190     -0.107590
  C      -4.355306      0.468994      0.342340
  C      -5.659043      1.148417      0.603853
  C      -6.855697      0.639246      0.360179
  H      -2.701211     -1.551354      2.220765
  N      -1.195095      1.048721      1.587647
  C      -0.006507      1.882106      1.714139
  C       0.150763      2.930531      0.626219
  C      -0.054677      2.438951     -0.796693
  C       0.674867      1.170434     -1.150689
  O       2.064452      1.297929     -0.881650
  C       2.767835      0.077535     -0.952720
  C       3.508928     -0.206302      0.337423
  O       2.654468     -0.299520      1.459541
  C       4.338993     -1.476454      0.176976
  C       5.181750     -1.780410      1.397907
  O       4.398059     -2.211905      2.489504
  O       5.233307     -1.320929     -0.911197
  C       4.568012     -1.156729     -2.130039
  O       5.563162     -1.114544     -3.101437
  C       3.754367      0.119244     -2.101235
  O       3.107988      0.229778     -3.349937
  C      -1.162863     -0.323865      1.479944
  O      -0.148838     -0.986955      1.448567
  H      -2.958983     -2.579733      0.165435
  H      -2.064981     -0.053729     -1.329820
  H      -0.817029     -1.635737     -2.649526
  H      -1.443601     -3.028400     -1.605320
  H      -5.075711     -1.540907      0.552920
  H      -4.772143     -1.099111     -1.126411
  H      -3.833627      1.051451     -0.420335
  H      -5.583789      2.145535      1.021439
  H      -7.751886      1.203145      0.574776
  H      -6.981260     -0.348558     -0.061190
  H       0.837026      1.203907      1.710752
  H      -0.040989      2.364889      2.687576
  H      -0.532466      3.755302      0.809111
  H       1.158301      3.327168      0.736235
  H      -1.113903      2.250281     -0.975902
  H       0.235371      3.232688     -1.483882
  H       0.519905      0.935282     -2.205383
  H       0.285133      0.332546     -0.578098
  H       2.064812     -0.740970     -1.134375
  H       4.191194      0.619439      0.540785
  H       1.802678     -0.702531      1.235361
  H       3.668674     -2.322022     -0.009744
  H       5.871690     -2.582330      1.151129
  H       5.768088     -0.896271      1.657735
  H       3.669044     -1.584148      2.577646
  H       3.901877     -2.011536     -2.298535
  H       5.179764     -0.741864     -3.902956
  H       4.442914      0.953165     -1.952026
  H       2.751239      1.118043     -3.437317
61
Coordinates from ORCA-job monomer_hf_opt E -1466.583961748880
  O      -2.773058      2.684422      1.876498
  C      -2.516598      1.536332      1.677176
  C      -3.487926      0.383557      1.616192
  H      -4.010047      0.326543      2.563961
  C      -2.609585     -0.847901      1.354765
  C      -3.108987     -1.480678      0.015306
  C      -2.344224     -1.036777     -1.205278
  C      -1.684122     -1.835583     -2.020413
  C      -4.570039     -0.990993     -0.030851
  C      -4.506215      0.462570      0.449546
  C      -5.798358      1.128402      0.837969
  C      -7.010251      0.625501      0.691215
  H      -2.680084     -1.579234      2.150615
  N      -1.234087      1.050135      1.496832
  C      -0.033665      1.884922      1.594943
  C       0.152479      2.912167      0.476711
  C       0.013879      2.388934     -0.955799
  C       0.773267      1.110565     -1.267835
  O       2.139335      1.248009     -0.938200
  C       2.874984      0.048025     -0.970070
  C       3.547215     -0.235745      0.367036
  O       2.640287     -0.379276      1.435052
  C       4.437972     -1.477594      0.240362
  C       5.235074     -1.772391      1.502928
  O       4.421939     -2.227265      2.548047
  O       5.374074     -1.277761     -0.796396
  C       4.792726     -1.122392     -2.049296
  O       5.834673     -1.033053     -2.951317
  C       3.936610      0.131352     -2.054064
  O       3.370597      0.244682     -3.335670
  C      -1.196572     -0.316984      1.366094
  O      -0.191424     -0.965584      1.268370
  H      -3.055814     -2.560139      0.077770
  H      -2.357691      0.018566     -1.422830
  H      -1.159871     -1.445031     -2.875616
  H      -1.633702     -2.896751     -1.850493
  H      -5.165287     -1.577585      0.663833
  H      -5.009635     -1.094654     -1.015907
  H      -4.063768      1.067945     -0.339906
  H      -5.689295      2.112718      1.263820
  H      -7.878456      1.182037      0.993456
  H      -7.181062     -0.345649      0.264071
  H       0.803142      1.210363      1.612617
  H      -0.067023      2.391179      2.551574
  H      -0.536824      3.735761      0.616022
  H       1.149655      3.317221      0.612838
  H      -1.033152      2.197362     -1.180523
  H       0.328753      3.173063     -1.638272
  H       0.667581      0.857303     -2.322071
  H       0.368858      0.283207     -0.710189
  H       2.210929     -0.781248     -1.205970
  H       4.177602      0.607766      0.623417
  H       1.826625     -0.807639      1.176770
  H       3.814603     -2.343185      0.015777
  H       5.950019     -2.552720      1.283970
  H       5.791479     -0.883936      1.793743
  H       3.694404     -1.619458      2.621693
  H       4.172311     -1.990993     -2.272425
  H       5.489966     -0.674299     -3.759489
  H       4.586794      0.977685     -1.852959
  H       3.000493      1.111519     -3.428839
61
Coordinates from ORCA-job monomer_hf_opt E -1466.584654217769
  O      -2.721192      2.631213      1.883506
  C      -2.489370      1.482279      1.684526
  C      -3.489464      0.348982      1.623018
  H      -3.983629      0.282654      2.584303
  C      -2.643337     -0.895672      1.308793
  C      -3.186725     -1.484869     -0.033452
  C      -2.438809     -1.027069     -1.263054
  C      -1.796753     -1.815946     -2.101500
  C      -4.642659     -0.968896     -0.030044
  C      -4.544847      0.472421      0.490529
  C      -5.816635      1.143755      0.941147
  C      -7.039824      0.664045      0.824951
  H      -2.710749     -1.647167      2.085268
  N      -1.223529      0.971075      1.456944
  C      -0.007549      1.785300      1.555299
  C       0.175857      2.844253      0.461479
  C       0.043777      2.370665     -0.991553
  C       0.809563      1.104654     -1.340880
  O       2.168248      1.250518     -1.001821
  C       2.912278      0.060569     -0.994165
  C       3.559892     -0.183501      0.365473
  O       2.637249     -0.283697      1.420217
  C       4.453591     -1.430865      0.286376
  C       5.238149     -1.693588      1.567370
  O       4.418229     -2.110164      2.617639
  O       5.400937     -1.258441     -0.740182
  C       4.855295     -1.129712     -2.007615
  O       5.911462     -1.056203     -2.887905
  C       3.999603      0.126375     -2.055548
  O       3.464287      0.220655     -3.349937
  C      -1.215206     -0.394481      1.295674
  O      -0.233694     -1.069055      1.182776
  H      -3.151582     -2.565772      0.002084
  H      -2.449916      0.031350     -1.466440
  H      -1.287037     -1.415027     -2.959142
  H      -1.745989     -2.880090     -1.954247
  H      -5.231167     -1.565182      0.661550
  H      -5.107684     -1.038316     -1.005955
  H      -4.124509      1.095221     -0.295967
  H      -5.675640      2.114579      1.386586
  H      -7.887639      1.225751      1.171051
  H      -7.246625     -0.292515      0.381022
  H       0.821423      1.100348      1.550236
  H      -0.026310      2.273385      2.520601
  H      -0.517851      3.660044      0.624332
  H       1.171163      3.248229      0.610761
  H      -1.001509      2.188632     -1.229074
  H       0.364000      3.178359     -1.642698
  H       0.707860      0.882768     -2.401783
  H       0.403964      0.261347     -0.807034
  H       2.258727     -0.777304     -1.225917
  H       4.187467      0.665652      0.605418
  H       1.816940     -0.695443      1.167501
  H       3.834072     -2.303276      0.080546
  H       5.947035     -2.485756      1.375332
  H       5.803641     -0.803019      1.832809
  H       3.702866     -1.490605      2.690629
  H       4.238442     -2.000939     -2.229987
  H       5.582172     -0.723033     -3.712640
  H       4.646790      0.973558     -1.852238
  H       3.093956      1.084285     -3.464659
61
Coordinates from ORCA-job monomer_hf_opt E -1466.584744773479
  O      -2.781826      2.740921      1.712911
  C      -2.552483      1.580276      1.620754
  C      -3.561949      0.448408      1.631816
  H      -4.054055      0.451008      2.596508
  C      -2.723204     -0.821243      1.402351
  C      -3.257052     -1.488520      0.095931
  C      -2.492817     -1.117883     -1.154385
  C      -1.828231     -1.964701     -1.915847
  C      -4.713295     -0.970254      0.056687
  C      -4.621046      0.500146      0.496263
  C      -5.896601      1.186752      0.914661
  C      -7.117014      0.695310      0.836111
  H      -2.806118     -1.526005      2.219904
  N      -1.289978      1.040968      1.442536
  C      -0.071958      1.851843      1.524176
  C       0.150512      2.846116      0.378252
  C       0.070348      2.316684     -1.061100
  C       0.849855      1.044824     -1.361509
  O       2.192959      1.199907     -0.981536
  C       2.978832      0.041668     -1.029626
  C       3.559328     -0.304417      0.341409
  O       2.585238     -0.551118      1.317577
  C       4.524554     -1.495537      0.199888
  C       5.263592     -1.836851      1.492091
  O       4.425984     -2.384001      2.461004
  O       5.507466     -1.187702     -0.752575
  C       5.033248     -0.968550     -2.031443
  O       6.125695     -0.764849     -2.838872
  C       4.122451      0.250902     -2.012746
  O       3.657831      0.453251     -3.320452
  C      -1.286549     -0.333073      1.371509
  O      -0.313884     -1.025672      1.338085
  H      -3.227110     -2.565200      0.200707
  H      -2.514173     -0.078490     -1.445373
  H      -1.314109     -1.631673     -2.798659
  H      -1.765599     -3.014637     -1.687362
  H      -5.309313     -1.525892      0.775375
  H      -5.169931     -1.095032     -0.917880
  H      -4.211970      1.081448     -0.326414
  H      -5.755172      2.183806      1.298926
  H      -7.966465      1.273029      1.153087
  H      -7.328024     -0.288027      0.453598
  H       0.752487      1.165468      1.593747
  H      -0.121635      2.406467      2.451451
  H      -0.552591      3.665395      0.474378
  H       1.140029      3.258864      0.542781
  H      -0.966135      2.129647     -1.330876
  H       0.413421      3.107459     -1.721454
  H       0.784442      0.824699     -2.424960
  H       0.415456      0.202097     -0.841756
  H       2.375087     -0.793469     -1.378556
  H       4.122683      0.548201      0.700296
  H       1.805556     -0.980622      0.980438
  H       3.963796     -2.377587     -0.109668
  H       6.017357     -2.576215      1.261097
  H       5.777569     -0.949353      1.857370
  H       3.685046     -1.803398      2.588040
  H       4.469407     -1.839879     -2.370347
  H       5.822688     -0.383758     -3.655358
  H       4.720131      1.097623     -1.689379
  H       3.248743      1.307740     -3.373273
61
Coordinates from ORCA-job monomer_hf_opt E -1466.585656190758
  O      -2.766222      2.697537      1.788796
  C      -2.541244      1.543889      1.596847
  C      -3.538717      0.404524      1.619030
  H      -3.969117      0.354670      2.612739
  C      -2.711109     -0.842835      1.277915
  C      -3.317983     -1.443701     -0.026650
  C      -2.635177     -1.008872     -1.299760
  C      -2.023907     -1.818509     -2.142624
  C      -4.773893     -0.936870      0.045423
  C      -4.662128      0.506337      0.555054
  C      -5.913090      1.155569      1.084146
  C      -7.132307      0.653754      1.052750
  H      -2.749509     -1.589358      2.061454
  N      -1.283043      1.019316      1.356782
  C      -0.062822      1.821291      1.451554
  C       0.150463      2.819740      0.314819
  C       0.086019      2.264325     -1.110915
  C       0.879635      0.993979     -1.368333
  O       2.220293      1.172769     -0.983045
  C       3.017381      0.018490     -0.987617
  C       3.609194     -0.268100      0.390924
  O       2.645797     -0.482010      1.387186
  C       4.581661     -1.455028      0.290756
  C       5.325831     -1.741067      1.591131
  O       4.497303     -2.273434      2.579278
  O       5.561260     -1.174936     -0.675856
  C       5.074661     -1.008422     -1.960281
  O       6.165343     -0.825865     -2.780088
  C       4.152027      0.200506     -1.984350
  O       3.677303      0.345223     -3.297000
  C      -1.281180     -0.347238      1.202505
  O      -0.307760     -1.026151      1.047068
  H      -3.279448     -2.524906      0.021174
  H      -2.680300      0.043212     -1.540854
  H      -1.575892     -1.446120     -3.047333
  H      -1.948168     -2.878581     -1.966609
  H      -5.323912     -1.535639      0.766786
  H      -5.286424     -1.012359     -0.906895
  H      -4.305273      1.134589     -0.258923
  H      -5.756774      2.133810      1.511579
  H      -7.967060      1.204046      1.450506
  H      -7.356289     -0.311475      0.631714
  H       0.759387      1.128836      1.504847
  H      -0.102891      2.365168      2.387204
  H      -0.566900      3.627720      0.400140
  H       1.133623      3.247980      0.482475
  H      -0.946919      2.059676     -1.384558
  H       0.429546      3.043418     -1.785856
  H       0.826586      0.745388     -2.427034
  H       0.448357      0.160282     -0.826525
  H       2.420616     -0.837204     -1.301456
  H       4.170913      0.603646      0.708569
  H       1.868955     -0.940929      1.077318
  H       4.026038     -2.352626      0.014853
  H       6.093043     -2.474942      1.383543
  H       5.822443     -0.831477      1.926822
  H       3.745289     -1.701057      2.691235
  H       4.516499     -1.898383     -2.261970
  H       5.855088     -0.482200     -3.612070
  H       4.743145      1.066323     -1.697643
  H       3.253259      1.191598     -3.380368
61
Coordinates from ORCA-job monomer_hf_opt E -1466.586033588383
  O      -2.734045      2.679093      1.787867
  C      -2.523986      1.518892      1.614403
  C      -3.538674      0.397584      1.633302
  H      -3.978855      0.363347      2.623205
  C      -2.726259     -0.863991      1.312015
  C      -3.331641     -1.469363      0.006963
  C      -2.637408     -1.057508     -1.266557
  C      -2.031936     -1.887355     -2.093565
  C      -4.778608     -0.938991      0.061942
  C      -4.648368      0.507119      0.556121
  C      -5.894132      1.183811      1.062996
  C      -7.121625      0.702119      1.022378
  H      -2.781912     -1.601172      2.103356
  N      -1.272744      0.980706      1.373121
  C      -0.044148      1.775779      1.451328
  C       0.159274      2.793856      0.327529
  C       0.083957      2.272251     -1.110688
  C       0.891910      1.020398     -1.405955
  O       2.231417      1.205708     -1.016043
  C       3.027717      0.049780     -1.018973
  C       3.595283     -0.245566      0.365804
  O       2.611926     -0.453535      1.345962
  C       4.557532     -1.439586      0.276963
  C       5.271697     -1.739811      1.589675
  O       4.417312     -2.276410      2.554198
  O       5.559555     -1.160590     -0.669735
  C       5.093459     -0.982233     -1.962378
  O       6.203092     -0.802479     -2.759608
  C       4.177239      0.230486     -1.997584
  O       3.723140      0.377872     -3.317301
  C      -1.290013     -0.388753      1.246860
  O      -0.323179     -1.080727      1.105547
  H      -3.310233     -2.550430      0.065182
  H      -2.664092     -0.008692     -1.518587
  H      -1.567074     -1.535536     -2.997784
  H      -1.972536     -2.944266     -1.898840
  H      -5.343471     -1.520943      0.785139
  H      -5.284149     -1.016724     -0.893673
  H      -4.269345      1.119580     -0.260245
  H      -5.727535      2.163382      1.482167
  H      -7.950866      1.269918      1.404763
  H      -7.355265     -0.262238      0.607989
  H       0.774633      1.077626      1.482220
  H      -0.065329      2.304579      2.396121
  H      -0.557437      3.598677      0.438281
  H       1.141546      3.223583      0.494952
  H      -0.948981      2.060343     -1.377828
  H       0.408882      3.071251     -1.771435
  H       0.840158      0.795133     -2.469996
  H       0.478099      0.171001     -0.883354
  H       2.433022     -0.802647     -1.344202
  H       4.160179      0.619411      0.694691
  H       1.838839     -0.901771      1.016088
  H       3.999161     -2.329094     -0.017432
  H       6.039788     -2.475285      1.395054
  H       5.762255     -0.835378      1.945116
  H       3.669200     -1.698917      2.648503
  H       4.537393     -1.867400     -2.278122
  H       5.910956     -0.454118     -3.593459
  H       4.766457      1.093666     -1.700745
  H       3.300269      1.221876     -3.403400
61
Coordinates from ORCA-job monomer_hf_opt E -1466.586150531496
  O      -2.733997      2.677652      1.782276
  C      -2.523648      1.518773      1.608588
  C      -3.538215      0.396635      1.633242
  H      -3.962389      0.356793      2.629656
  C      -2.728813     -0.863057      1.292665
  C      -3.352166     -1.462085     -0.006634
  C      -2.676982     -1.044232     -1.289678
  C      -2.083075     -1.871505     -2.127409
  C      -4.799835     -0.933733      0.073132
  C      -4.665162      0.510665      0.573945
  C      -5.904647      1.182360      1.104596
  C      -7.131737      0.699431      1.082239
  H      -2.772410     -1.605743      2.079572
  N      -1.275504      0.981811      1.349829
  C      -0.046141      1.775251      1.427786
  C       0.157567      2.787756      0.299343
  C       0.091014      2.255042     -1.136001
  C       0.903208      1.001833     -1.418469
  O       2.239579      1.193414     -1.023096
  C       3.043134      0.043474     -1.018541
  C       3.599825     -0.250716      0.371817
  O       2.609993     -0.467293      1.342666
  C       4.572646     -1.437306      0.289575
  C       5.277887     -1.735327      1.608431
  O       4.420543     -2.281738      2.563311
  O       5.580138     -1.148188     -0.647044
  C       5.127628     -0.969698     -1.943632
  O       6.243011     -0.777303     -2.728090
  C       4.201555      0.235815     -1.984914
  O       3.759471      0.382983     -3.308020
  C      -1.293670     -0.386122      1.206311
  O      -0.328027     -1.078473      1.067069
  H      -3.328599     -2.543156      0.046159
  H      -2.711866      0.004668     -1.540471
  H      -1.637457     -1.519599     -3.040606
  H      -2.017437     -2.928401     -1.935470
  H      -5.353396     -1.520842      0.800734
  H      -5.319255     -1.006944     -0.875192
  H      -4.300579      1.128691     -0.244268
  H      -5.732304      2.159945      1.525410
  H      -7.955029      1.264208      1.481115
  H      -7.372401     -0.263030      0.667430
  H       0.771221      1.076350      1.462737
  H      -0.068471      2.308906      2.369392
  H      -0.564120      3.589412      0.401528
  H       1.137334      3.222097      0.467938
  H      -0.939768      2.038833     -1.407065
  H       0.418036      3.049873     -1.800501
  H       0.859440      0.772353     -2.481540
  H       0.485858      0.154082     -0.893618
  H       2.458369     -0.811926     -1.352887
  H       4.154352      0.617840      0.707444
  H       1.845184     -0.923454      1.007125
  H       4.024429     -2.330699     -0.011136
  H       6.053384     -2.463755      1.418339
  H       5.758439     -0.828270      1.970409
  H       3.671838     -1.706516      2.662607
  H       4.582703     -1.857970     -2.268884
  H       5.956109     -0.435851     -3.566624
  H       4.780641      1.102693     -1.680036
  H       3.324068      1.220610     -3.394278
61
Coordinates from ORCA-job monomer_hf_opt E -1466.586202547080
  O      -2.732529      2.676124      1.783336
  C      -2.524512      1.518076      1.603800
  C      -3.539358      0.396007      1.638496
  H      -3.946911      0.351685      2.641708
  C      -2.735584     -0.862663      1.279593
  C      -3.374111     -1.450931     -0.016817
  C      -2.715661     -1.023096     -1.305868
  C      -2.131935     -1.845826     -2.155202
  C      -4.821852     -0.925234      0.086477
  C      -4.682803      0.515543      0.597584
  C      -5.915673      1.180184      1.152534
  C      -7.141739      0.694656      1.146628
  H      -2.772589     -1.611557      2.060751
  N      -1.279952      0.980266      1.330085
  C      -0.049314      1.772141      1.398579
  C       0.151715      2.774712      0.261093
  C       0.094572      2.227140     -1.169486
  C       0.918013      0.977715     -1.438384
  O       2.250567      1.181505     -1.036964
  C       3.063366      0.038695     -1.022902
  C       3.603347     -0.255543      0.374331
  O       2.602432     -0.481424      1.331393
  C       4.586367     -1.434584      0.301229
  C       5.275810     -1.732747      1.628753
  O       4.410543     -2.292060      2.568405
  O       5.604053     -1.133873     -0.620068
  C       5.169933     -0.952829     -1.922214
  O       6.294796     -0.746245     -2.688718
  C       4.233954      0.244896     -1.971883
  O       3.809290      0.393332     -3.300176
  C      -1.300200     -0.387614      1.183865
  O      -0.338070     -1.079499      1.021649
  H      -3.348736     -2.532291      0.026932
  H      -2.756799      0.027011     -1.551338
  H      -1.701524     -1.491463     -3.074546
  H      -2.061713     -2.903479     -1.968457
  H      -5.365159     -1.519314      0.816172
  H      -5.353761     -0.991395     -0.855451
  H      -4.332350      1.141251     -0.220763
  H      -5.738626      2.155269      1.577186
  H      -7.959782      1.254839      1.562607
  H      -7.387770     -0.265573      0.729263
  H       0.766937      1.072439      1.438749
  H      -0.069747      2.314639      2.334977
  H      -0.576679      3.571789      0.352414
  H       1.127877      3.217368      0.428648
  H      -0.933249      1.999524     -1.442240
  H       0.417544      3.018357     -1.840186
  H       0.883635      0.743365     -2.500513
  H       0.501962      0.129712     -0.911525
  H       2.491156     -0.820352     -1.369374
  H       4.146698      0.616151      0.719730
  H       1.846601     -0.944988      0.985382
  H       4.049559     -2.331215     -0.010180
  H       6.060526     -2.453109      1.445897
  H       5.743178     -0.823254      2.001884
  H       3.660284     -1.718956      2.669901
  H       4.637742     -1.843987     -2.260499
  H       6.016955     -0.411265     -3.533325
  H       4.801107      1.115486     -1.655377
  H       3.359673      1.223806     -3.387268
61
Coordinates from ORCA-job monomer_hf_opt E -1466.586230316116
  O      -2.727826      2.674222      1.779636
  C      -2.524203      1.516427      1.590797
  C      -3.539011      0.395332      1.640802
  H      -3.929699      0.350595      2.650875
  C      -2.741761     -0.863431      1.269075
  C      -3.396813     -1.446294     -0.021300
  C      -2.758647     -1.011640     -1.318124
  C      -2.187281     -1.831907     -2.178236
  C      -4.843399     -0.923067      0.105049
  C      -4.698263      0.516144      0.618206
  C      -5.923258      1.177551      1.193471
  C      -7.148463      0.689753      1.205898
  H      -2.771780     -1.614922      2.048106
  N      -1.282497      0.977008      1.307847
  C      -0.050129      1.767147      1.370432
  C       0.150085      2.764225      0.228188
  C       0.102020      2.208633     -1.199511
  C       0.937293      0.965264     -1.460119
  O       2.267238      1.180230     -1.053496
  C       3.086119      0.041582     -1.029439
  C       3.607569     -0.255133      0.374005
  O       2.594247     -0.484941      1.317620
  C       4.593964     -1.431507      0.310333
  C       5.262816     -1.734985      1.646906
  O       4.384537     -2.306827      2.567355
  O       5.625309     -1.123087     -0.593623
  C       5.210272     -0.936168     -1.901510
  O       6.347119     -0.719983     -2.648233
  C       4.269428      0.257138     -1.960270
  O       3.863290      0.407459     -3.294082
  C      -1.306814     -0.390856      1.159796
  O      -0.346556     -1.084394      0.991561
  H      -3.369252     -2.527821      0.016811
  H      -2.804725      0.039178     -1.559092
  H      -1.770636     -1.476760     -3.103789
  H      -2.113316     -2.889777     -1.993666
  H      -5.375129     -1.520199      0.840792
  H      -5.389105     -0.986926     -0.829192
  H      -4.360554      1.144670     -0.203464
  H      -5.741461      2.152263      1.617175
  H      -7.960904      1.247754      1.635726
  H      -7.399165     -0.270153      0.790524
  H       0.765107      1.066300      1.413775
  H      -0.069233      2.314156      2.304293
  H      -0.583750      3.557152      0.312620
  H       1.122805      3.214092      0.396743
  H      -0.922767      1.969321     -1.473667
  H       0.419053      2.999223     -1.873854
  H       0.911011      0.727799     -2.521864
  H       0.525538      0.116193     -0.932481
  H       2.524103     -0.819426     -1.387863
  H       4.144799      0.616656      0.728928
  H       1.845636     -0.952395      0.960440
  H       4.064526     -2.327852     -0.014403
  H       6.055147     -2.449224      1.472738
  H       5.717527     -0.825289      2.034914
  H       3.634196     -1.733374      2.667097
  H       4.687797     -1.827882     -2.253397
  H       6.081274     -0.390318     -3.498788
  H       4.827408      1.129636     -1.632568
  H       3.400668      1.230750     -3.382196
61
Coordinates from ORCA-job monomer_hf_opt E -1466.586251395457
  O      -2.725630      2.669065      1.782580
  C      -2.523546      1.510674      1.595473
  C      -3.539996      0.391225      1.647488
  H      -3.920605      0.341806      2.661137
  C      -2.747399     -0.866396      1.262104
  C      -3.409876     -1.435951     -0.030480
  C      -2.782849     -0.983653     -1.326825
  C      -2.215532     -1.792763     -2.199993
  C      -4.856177     -0.916595      0.112186
  C      -4.708538      0.518484      0.636141
  C      -5.929484      1.173553      1.227202
  C      -7.153776      0.683601      1.247294
  H      -2.775845     -1.624579      2.034672
  N      -1.284866      0.971459      1.299688
  C      -0.051966      1.762477      1.351112
  C       0.143961      2.750332      0.199942
  C       0.099970      2.182318     -1.223048
  C       0.945543      0.943665     -1.473840
  O       2.275005      1.172470     -1.071448
  C       3.100708      0.038768     -1.035509
  C       3.611341     -0.253136      0.372826
  O       2.591649     -0.482623      1.310000
  C       4.601659     -1.426543      0.318993
  C       5.257250     -1.728657      1.662304
  O       4.371708     -2.309438      2.570353
  O       5.641257     -1.114008     -0.574430
  C       5.238733     -0.927655     -1.886404
  O       6.383140     -0.704336     -2.619749
  C       4.291742      0.260169     -1.955124
  O       3.897249      0.405731     -3.292762
  C      -1.312040     -0.396135      1.149841
  O      -0.353547     -1.090400      0.975266
  H      -3.379517     -2.517730     -0.005682
  H      -2.833191      0.069520     -1.554735
  H      -1.805244     -1.427401     -3.124437
  H      -2.137668     -2.852087     -2.026636
  H      -5.380802     -1.520884      0.847076
  H      -5.409370     -0.973379     -0.818051
  H      -4.378567      1.154207     -0.183151
  H      -5.745721      2.145407      1.656356
  H      -7.963005      1.237058      1.688545
  H      -7.406565     -0.273402      0.827187
  H       0.763618      1.062305      1.398329
  H      -0.069152      2.317084      2.280444
  H      -0.594616      3.539523      0.277624
  H       1.113790      3.207704      0.364613
  H      -0.922671      1.930797     -1.494052
  H       0.408867      2.969751     -1.904780
  H       0.920776      0.696401     -2.533455
  H       0.541841      0.097125     -0.937743
  H       2.548058     -0.826263     -1.398602
  H       4.143738      0.620628      0.729872
  H       1.849133     -0.956524      0.949688
  H       4.078843     -2.324473     -0.011680
  H       6.056623     -2.436729      1.496235
  H       5.700324     -0.816946      2.058499
  H       3.621946     -1.735991      2.669637
  H       4.725263     -1.821743     -2.245030
  H       6.124972     -0.385449     -3.476133
  H       4.841285      1.136461     -1.623569
  H       3.419270      1.219418     -3.383051
61
Coordinates from ORCA-job monomer_hf_opt E -1466.586259056814
  O      -2.725241      2.670644      1.776594
  C      -2.524569      1.511662      1.592218
  C      -3.542114      0.393222      1.648118
  H      -3.920723      0.345769      2.662594
  C      -2.751281     -0.865747      1.263203
  C      -3.413809     -1.433632     -0.029931
  C      -2.786616     -0.978068     -1.325076
  C      -2.217358     -1.784136     -2.199870
  C      -4.860248     -0.914842      0.114168
  C      -4.712965      0.520009      0.639175
  C      -5.933385      1.173230      1.233340
  C      -7.157063      0.681846      1.255673
  H      -2.781380     -1.624165      2.035422
  N      -1.286408      0.970253      1.298095
  C      -0.053292      1.760984      1.347704
  C       0.144094      2.745598      0.193935
  C       0.100567      2.175205     -1.227940
  C       0.947012      0.936917     -1.476078
  O       2.276932      1.169417     -1.077302
  C       3.104580      0.037386     -1.038950
  C       3.611450     -0.254652      0.370746
  O       2.589720     -0.486815      1.304796
  C       4.604333     -1.426094      0.318646
  C       5.256166     -1.728412      1.663753
  O       4.368691     -2.312031      2.568157
  O       5.646045     -1.110607     -0.571154
  C       5.247645     -0.923286     -1.884100
  O       6.393947     -0.696159     -2.613209
  C       4.298181      0.262483     -1.954418
  O       3.907485      0.408728     -3.293045
  C      -1.315096     -0.397593      1.150842
  O      -0.357518     -1.093813      0.979610
  H      -3.382724     -2.515454     -0.007208
  H      -2.838643      0.075505     -1.550833
  H      -1.807310     -1.415473     -3.123018
  H      -2.138576     -2.843891     -2.029436
  H      -5.383960     -1.519779      0.849204
  H      -5.414187     -0.971196     -0.815631
  H      -4.385761      1.156882     -0.180189
  H      -5.749897      2.145042      1.662735
  H      -7.966005      1.234118      1.698960
  H      -7.409502     -0.275263      0.835468
  H       0.762224      1.060789      1.398037
  H      -0.071588      2.318474      2.275197
  H      -0.593839      3.535695      0.269592
  H       1.114114      3.202749      0.358295
  H      -0.921792      1.922278     -1.498578
  H       0.408855      2.961689     -1.911020
  H       0.920236      0.685557     -2.534656
  H       0.545447      0.091839     -0.935751
  H       2.555029     -0.828507     -1.404725
  H       4.141123      0.619685      0.730351
  H       1.849887     -0.963493      0.942969
  H       4.084497     -2.324862     -0.014442
  H       6.057510     -2.434643      1.499433
  H       5.696227     -0.816435      2.062685
  H       3.618544     -1.738892      2.667282
  H       4.737319     -1.817888     -2.245983
  H       6.137951     -0.379576     -3.471281
  H       4.844652      1.139688     -1.620215
  H       3.423894      1.219377     -3.382652
61
Coordinates from ORCA-job monomer_hf_opt E -1466.586265153145
  O      -2.724717      2.672083      1.768298
  C      -2.525570      1.512247      1.587380
  C      -3.544140      0.394912      1.647909
  H      -3.919450      0.349122      2.663705
  C      -2.755558     -0.865184      1.262252
  C      -3.418932     -1.429840     -0.031794
  C      -2.792812     -0.969001     -1.325451
  C      -2.220766     -1.769936     -2.203244
  C      -4.865375     -0.912329      0.115334
  C      -4.718660      0.521681      0.643014
  C      -5.938277      1.170994      1.242907
  C      -7.160919      0.677070      1.268234
  H      -2.787575     -1.624574      2.033390
  N      -1.287947      0.968439      1.295173
  C      -0.054508      1.758441      1.343852
  C       0.145587      2.739895      0.187988
  C       0.101762      2.166855     -1.232417
  C       0.948453      0.928440     -1.476743
  O       2.279955      1.165913     -1.086070
  C       3.109446      0.035465     -1.043218
  C       3.612251     -0.254857      0.368223
  O       2.588324     -0.488283      1.299423
  C       4.607713     -1.424375      0.319634
  C       5.255383     -1.725120      1.667044
  O       4.365652     -2.310541      2.568296
  O       5.651820     -1.107134     -0.566678
  C       5.257668     -0.920339     -1.880921
  O       6.406209     -0.690237     -2.605674
  C       4.305686      0.263160     -1.954542
  O       3.918806      0.408275     -3.294368
  C      -1.318523     -0.399454      1.149464
  O      -0.361983     -1.097626      0.980216
  H      -3.386854     -2.511752     -0.012670
  H      -2.848198      0.085171     -1.547836
  H      -1.811952     -1.395475     -3.124586
  H      -2.139151     -2.830221     -2.037199
  H      -5.387203     -1.519006      0.850311
  H      -5.420803     -0.967320     -0.813675
  H      -4.396031      1.161273     -0.175947
  H      -5.755472      2.142399      1.673644
  H      -7.969536      1.226859      1.715279
  H      -7.412477     -0.279780      0.846761
  H       0.760629      1.057808      1.397322
  H      -0.073993      2.318504      2.269747
  H      -0.590393      3.532101      0.261763
  H       1.116466      3.195373      0.352323
  H      -0.920512      1.912985     -1.502412
  H       0.410014      2.951819     -1.917269
  H       0.916826      0.669688     -2.533419
  H       0.550611      0.086290     -0.928731
  H       2.563116     -0.831828     -1.410669
  H       4.139233      0.620520      0.729280
  H       1.852043     -0.970384      0.937430
  H       4.090965     -2.324462     -0.014841
  H       6.058852     -2.429673      1.505639
  H       5.692149     -0.812326      2.067794
  H       3.614690     -1.737885      2.665454
  H       4.750565     -1.815897     -2.245170
  H       6.152754     -0.377845     -3.466204
  H       4.848915      1.141831     -1.618778
  H       3.427242      1.214387     -3.383646
61
Coordinates from ORCA-job monomer_hf_opt E -1466.586267327103
  O      -2.725220      2.672812      1.763765
  C      -2.526582      1.512579      1.584891
  C      -3.545587      0.395750      1.647465
  H      -3.919065      0.350702      2.663993
  C      -2.757982     -0.864769      1.261400
  C      -3.421432     -1.427530     -0.033462
  C      -2.796010     -0.963950     -1.326442
  C      -2.221504     -1.762180     -2.205108
  C      -4.867981     -0.911012      0.115157
  C      -4.721923      0.522496      0.644613
  C      -5.941372      1.169327      1.247620
  C      -7.163451      0.674060      1.274189
  H      -2.791386     -1.624860      2.031765
  N      -1.289048      0.967613      1.294355
  C      -0.055211      1.756921      1.343381
  C       0.146851      2.737138      0.186772
  C       0.102429      2.162817     -1.233071
  C       0.949155      0.924247     -1.476140
  O       2.281985      1.164364     -1.091719
  C       3.112165      0.034541     -1.046049
  C       3.613039     -0.254443      0.366345
  O       2.587926     -0.487387      1.296390
  C       4.609367     -1.423343      0.320085
  C       5.255385     -1.722579      1.668630
  O       4.364621     -2.307253      2.569367
  O       5.654501     -1.106125     -0.564969
  C       5.262313     -0.920048     -1.879907
  O       6.411970     -0.689376     -2.602716
  C       4.309593      0.262703     -1.955614
  O       3.924420      0.406709     -3.295979
  C      -1.320498     -0.400311      1.149366
  O      -0.364458     -1.099287      0.980684
  H      -3.388794     -2.509472     -0.016223
  H      -2.854027      0.090339     -1.547713
  H      -1.813568     -1.384847     -3.125670
  H      -2.136938     -2.822453     -2.040548
  H      -5.388835     -1.518945      0.849769
  H      -5.424017     -0.965139     -0.813539
  H      -4.401683      1.163884     -0.173851
  H      -5.759010      2.140304      1.679532
  H      -7.971895      1.222283      1.723447
  H      -7.414584     -0.282396      0.851597
  H       0.759392      1.055779      1.398312
  H      -0.075175      2.317973      2.268687
  H      -0.587647      3.530778      0.259787
  H       1.118464      3.191059      0.351178
  H      -0.919940      1.908796     -1.502472
  H       0.410702      2.946978     -1.918839
  H       0.913789      0.661464     -2.531742
  H       0.553989      0.083740     -0.923767
  H       2.567176     -0.833429     -1.413941
  H       4.138974      0.621499      0.727499
  H       1.853750     -0.973048      0.934936
  H       4.093714     -2.324093     -0.014354
  H       6.059195     -2.427132      1.508920
  H       5.691499     -0.809347      2.069083
  H       3.613558     -1.734511      2.665075
  H       4.756413     -1.816044     -2.244761
  H       6.159859     -0.379217     -3.464423
  H       4.851610      1.142010     -1.619532
  H       3.428520      1.210176     -3.385193
61
Coordinates from ORCA-job monomer_hf_opt E -1466.586268886511
  O      -2.725530      2.673235      1.760231
  C      -2.527328      1.512621      1.583170
  C      -3.546851      0.396358      1.647083
  H      -3.918624      0.351846      2.664291
  C      -2.760214     -0.864536      1.260560
  C      -3.424003     -1.425834     -0.034759
  C      -2.799429     -0.960720     -1.327561
  C      -2.222546     -1.757384     -2.206100
  C      -4.870503     -0.909806      0.115183
  C      -4.724548      0.523296      0.645885
  C      -5.943705      1.168517      1.251296
  C      -7.165512      0.672636      1.278821
  H      -2.794765     -1.625192      2.030316
  N      -1.289973      0.966628      1.293816
  C      -0.055351      1.754615      1.343467
  C       0.148383      2.734532      0.186817
  C       0.102945      2.159499     -1.232722
  C       0.949916      0.921103     -1.475651
  O       2.284066      1.163570     -1.097422
  C       3.114720      0.034190     -1.049146
  C       3.613391     -0.253838      0.364220
  O       2.586712     -0.486423      1.292765
  C       4.610478     -1.422135      0.320378
  C       5.254933     -1.719823      1.670011
  O       4.363100     -2.302949      2.570696
  O       5.656718     -1.104981     -0.563362
  C       5.266528     -0.919576     -1.879058
  O       6.417395     -0.688747     -2.599933
  C       4.313406      0.262681     -1.956868
  O       3.930128      0.405750     -3.297791
  C      -1.322399     -0.401316      1.149034
  O      -0.366820     -1.100926      0.980237
  H      -3.391222     -2.507801     -0.018661
  H      -2.860144      0.093401     -1.548961
  H      -1.815624     -1.378555     -3.126526
  H      -2.134913     -2.817409     -2.041632
  H      -5.390706     -1.518605      0.849518
  H      -5.427127     -0.963170     -0.813219
  H      -4.405910      1.165962     -0.172204
  H      -5.761346      2.139085      1.684163
  H      -7.973617      1.219904      1.729845
  H      -7.416725     -0.283398      0.855327
  H       0.758360      1.052464      1.398632
  H      -0.074847      2.315738      2.268780
  H      -0.584728      3.529429      0.259615
  H       1.120787      3.186796      0.351202
  H      -0.919591      1.905310     -1.501234
  H       0.410944      2.943159     -1.919203
  H       0.910779      0.655431     -2.530458
  H       0.557605      0.081618     -0.919837
  H       2.570921     -0.834247     -1.417770
  H       4.138128      0.622665      0.725734
  H       1.855245     -0.976381      0.931555
  H       4.095814     -2.323455     -0.014123
  H       6.058635     -2.424900      1.512025
  H       5.690980     -0.806190      2.069614
  H       3.611815     -1.730179      2.664462
  H       4.761629     -1.815946     -2.244366
  H       6.166750     -0.379642     -3.462434
  H       4.854422      1.142448     -1.620313
  H       3.430473      1.206892     -3.387127
61
Coordinates from ORCA-job monomer_hf_opt E -1466.586269585625
  O      -2.726071      2.673343      1.759626
  C      -2.527954      1.512635      1.583132
  C      -3.547818      0.396649      1.646799
  H      -3.919527      0.352393      2.664053
  C      -2.761374     -0.864476      1.260667
  C      -3.424716     -1.425605     -0.034961
  C      -2.799774     -0.960758     -1.327706
  C      -2.221087     -1.757584     -2.204906
  C      -4.871212     -0.909393      0.114528
  C      -4.725251      0.523675      0.645363
  C      -5.944544      1.168949      1.250509
  C      -7.166455      0.673334      1.277638
  H      -2.796704     -1.625181      2.030344
  N      -1.290574      0.966238      1.294830
  C      -0.055450      1.753423      1.345290
  C       0.149133      2.733749      0.189045
  C       0.102879      2.158900     -1.230588
  C       0.949808      0.920626     -1.474492
  O       2.284765      1.163729     -1.099577
  C       3.115347      0.034327     -1.050530
  C       3.613765     -0.253394      0.363022
  O       2.586798     -0.485315      1.291487
  C       4.610800     -1.421724      0.319796
  C       5.255561     -1.718670      1.669465
  O       4.363760     -2.300024      2.571257
  O       5.657027     -1.105020     -0.564091
  C       5.266976     -0.919927     -1.879908
  O       6.417961     -0.689698     -2.600747
  C       4.314166      0.262552     -1.958116
  O       3.931064      0.405402     -3.299047
  C      -1.323373     -0.401775      1.150066
  O      -0.367923     -1.101617      0.981665
  H      -3.392123     -2.507568     -0.018738
  H      -2.861643      0.093050     -1.550203
  H      -1.813865     -1.379199     -3.125387
  H      -2.132065     -2.817301     -2.039299
  H      -5.391827     -1.518202      0.848544
  H      -5.427515     -0.962595     -0.814081
  H      -4.406298      1.166397     -0.172558
  H      -5.762110      2.139417      1.683558
  H      -7.974546      1.220711      1.728535
  H      -7.417853     -0.282558      0.853960
  H       0.757695      1.050655      1.400161
  H      -0.074605      2.314066      2.270919
  H      -0.583346      3.529173      0.262072
  H       1.121985      3.185063      0.353353
  H      -0.919840      1.904798     -1.498416
  H       0.410546      2.942551     -1.917236
  H       0.908482      0.654483     -2.529120
  H       0.558982      0.081260     -0.917558
  H       2.571664     -0.834138     -1.419265
  H       4.138358      0.623261      0.724324
  H       1.856640     -0.977738      0.931043
  H       4.096049     -2.323154     -0.014302
  H       6.058509     -2.424663      1.511789
  H       5.692649     -0.804967      2.067750
  H       3.612614     -1.727024      2.664350
  H       4.761895     -1.816307     -2.244892
  H       6.167533     -0.379956     -3.463045
  H       4.855317      1.142255     -1.621609
  H       3.430217      1.205786     -3.388249
