61
Coordinates from ORCA-job monomer_hf_opt E -1466.586269585625
  O          -2.72607061793985      2.67334295849411      1.75962582491650
  C          -2.52795446895729      1.51263544355384      1.58313202703860
  C          -3.54781781722255      0.39664851853471      1.64679892577784
  H          -3.91952670529072      0.35239318968704      2.66405284304764
  C          -2.76137367501544     -0.86447641962638      1.26066743229690
  C          -3.42471585527274     -1.42560504217672     -0.03496093853656
  C          -2.79977375344780     -0.96075778167377     -1.32770600867877
  C          -2.22108673432947     -1.75758410936008     -2.20490612696632
  C          -4.87121216428235     -0.90939272050301      0.11452776153720
  C          -4.72525109292898      0.52367533690037      0.64536267588809
  C          -5.94454439921668      1.16894872309335      1.25050873329473
  C          -7.16645459433845      0.67333430756293      1.27763795000931
  H          -2.79670352672332     -1.62518115261553      2.03034380977578
  N          -1.29057390136984      0.96623760528375      1.29483002976467
  C          -0.05545040698554      1.75342345631385      1.34529028960786
  C           0.14913331831541      2.73374867619045      0.18904508291351
  C           0.10287855999267      2.15889960887962     -1.23058848642741
  C           0.94980817023737      0.92062550025718     -1.47449229707582
  O           2.28476469269439      1.16372884531154     -1.09957736789736
  C           3.11534690965049      0.03432664129663     -1.05053005788409
  C           3.61376469803263     -0.25339431127615      0.36302162177773
  O           2.58679794838687     -0.48531510088623      1.29148740475636
  C           4.61080001601672     -1.42172422058110      0.31979592758671
  C           5.25556137200923     -1.71866982634093      1.66946460401374
  O           4.36375970431974     -2.30002384330949      2.57125687576126
  O           5.65702721588521     -1.10501963017400     -0.56409119174720
  C           5.26697583241770     -0.91992740218560     -1.87990841621228
  O           6.41796081916624     -0.68969811318667     -2.60074695514380
  C           4.31416550342181      0.26255206991040     -1.95811561423146
  O           3.93106397535834      0.40540205692109     -3.29904714610721
  C          -1.32337267051187     -0.40177465370228      1.15006628033305
  O          -0.36792258349834     -1.10161722838743      0.98166457201040
  H          -3.39212343889820     -2.50756830171443     -0.01873781957621
  H          -2.86164264067675      0.09304993673028     -1.55020317414026
  H          -1.81386543256869     -1.37919919831510     -3.12538702175710
  H          -2.13206478005304     -2.81730093957332     -2.03929894370884
  H          -5.39182711246429     -1.51820222190760      0.84854443044594
  H          -5.42751549905402     -0.96259480757899     -0.81408060704982
  H          -4.40629813634582      1.16639712242527     -0.17255830764316
  H          -5.76211044807181      2.13941663765530      1.68355758242929
  H          -7.97454647874504      1.22071100966609      1.72853486133821
  H          -7.41785294608709     -0.28255765256775      0.85395981682471
  H           0.75769519955150      1.05065497157342      1.40016121661805
  H          -0.07460486859708      2.31406580265608      2.27091886240821
  H          -0.58334561601801      3.52917309390723      0.26207242850213
  H           1.12198480324851      3.18506336385389      0.35335334040825
  H          -0.91984029444691      1.90479769060304     -1.49841599368543
  H           0.41054599527063      2.94255070209296     -1.91723604721286
  H           0.90848225871766      0.65448254745357     -2.52912045736137
  H           0.55898243869540      0.08125981816999     -0.91755830359149
  H           2.57166411746984     -0.83413758438885     -1.41926499346143
  H           4.13835824323097      0.62326126860296      0.72432374653885
  H           1.85664048939782     -0.97773807851659      0.93104347417552
  H           4.09604911782808     -2.32315369023362     -0.01430179069474
  H           6.05850902061102     -2.42466288447628      1.51178854955993
  H           5.69264851780317     -0.80496724370069      2.06774972662336
  H           3.61261390628397     -1.72702417734779      2.66435037218105
  H           4.76189490661392     -1.81630681998826     -2.24489210337914
  H           6.16753310257616     -0.37995578046341     -3.46304520800334
  H           4.85531749325272      1.14225469144285     -1.62160944025374
  H           3.43021660290178      1.20578610173424     -3.38824907173422
