
                                 *****************
                                 * O   R   C   A *
                                 *****************

                                            #,                                       
                                            ###                                      
                                            ####                                     
                                            #####                                    
                                            ######                                   
                                           ########,                                 
                                     ,,################,,,,,                         
                               ,,#################################,,                 
                          ,,##########################################,,             
                       ,#########################################, ''#####,          
                    ,#############################################,,   '####,        
                  ,##################################################,,,,####,       
                ,###########''''           ''''###############################       
              ,#####''   ,,,,##########,,,,          '''####'''          '####       
            ,##' ,,,,###########################,,,                        '##       
           ' ,,###''''                  '''############,,,                           
         ,,##''                                '''############,,,,        ,,,,,,###''
      ,#''                                            '''#######################'''  
     '                                                          ''''####''''         
             ,#######,   #######,   ,#######,      ##                                
            ,#'     '#,  ##    ##  ,#'     '#,    #''#        ,####,   ,####,        
            ##       ##  ##   ,#'  ##            #'  '#       #'       #'  '#        
            ##       ##  #######   ##           ,######,      #####,   #    #        
            '#,     ,#'  ##    ##  '#,     ,#' ,#      #,     #,   #   #,  ,#        
             '#######'   ##     ##  '#######'  #'      '#     '####' # '####'        



                #########################################################
                #                        -***-                          #
                #          Department of theory and spectroscopy        #
                #                                                       #
                #                      Frank Neese                      #
                #                                                       #
                #     Directorship, Architecture, Infrastructure        #
                #                    SHARK, DRIVERS                     #
                #        Core code/Algorithms in most modules           #
                #                                                       #
                #        Max Planck Institute fuer Kohlenforschung      #
                #                Kaiser Wilhelm Platz 1                 #
                #                 D-45470 Muelheim/Ruhr                 #
                #                      Germany                          #
                #                                                       #
                #                  All rights reserved                  #
                #                        -***-                          #
                #########################################################


                         Program Version 6.0.1  -  RELEASE   -


 With contributions from (in alphabetic order):
[Max-Planck-Institut fuer Kohlenforschung]                               
  Daniel Aravena         : Magnetic Suceptibility                        
  Michael Atanasov       : Ab Initio Ligand Field Theory (pilot matlab implementation)
  Alexander A. Auer      : GIAO ZORA, VPT2 properties, NMR spectrum      
  Ute Becker             : All parallelization in ORCA, NUMFREQ, NUMCALC 
  Giovanni Bistoni       : ED, misc. LED, open-shell LED, HFLD           
  Martin Brehm           : Molecular dynamics                            
  Dmytro Bykov           : pre 5.0 version of the SCF Hessian            
  Marcos Casanova-Páez   : Triplet and SCS-CIS(D). UHF-(DLPNO)-IP/EA/STEOM-CCSD. UHF-CVS-IP/STEOM-CCSD   
  Vijay G. Chilkuri      : MRCI spin determinant printing, contributions to CSF-ICE 
  Pauline Colinet        : FMM embedding                                 
  Dipayan Datta          : RHF DLPNO-CCSD density                        
  Achintya Kumar Dutta   : EOM-CC, STEOM-CC                              
  Nicolas Foglia         : Exact transition moments, OPA infrastructure, MCD improvements    
  Dmitry Ganyushin       : Spin-Orbit,Spin-Spin,Magnetic field MRCI      
  Miquel Garcia-Rates    : C-PCM and meta-GGA Hessian, CCSD/C-PCM, Gaussian charge scheme 
  Tiago L. C. Gouveia    : GS-ROHF, GS-ROCIS                             
  Yang Guo               : DLPNO-NEVPT2, F12-NEVPT2, CIM, IAO-localization        
  Andreas Hansen         : Spin unrestricted coupled pair/coupled cluster methods 
  Ingolf Harden          : AUTO-CI MPn and infrastructure                
  Benjamin Helmich-Paris : MC-RPA, TRAH-(SCF,CASSCF), AVAS, COSX integrals, SCF dyn. polar. 
  Lee Huntington         : MR-EOM, pCC                                   
  Robert Izsak           : Overlap fitted RIJCOSX, COSX-SCS-MP3, EOM     
  Riya Kayal             : Wick's Theorem for AUTO-CI, AUTO-CI UHF-CCSDT 
  Emily Kempfer          : AUTO-CI, RHF CISDT and CCSDT                  
  Christian Kollmar      : KDIIS, OOCD, Brueckner-CCSD(T), CCSD density, CASPT2, CASPT2-K, improved NEVPT2 
  Axel Koslowski         : Symmetry handling                             
  Simone Kossmann        : meta-GGA functionals, TD-DFT gradient, OOMP2, (MP2 Hessian; deprecated post 5.0) 
  Lucas Lang             : DCDCAS                                        
  Marvin Lechner         : AUTO-CI (C++ implementation), FIC-MRCC        
  Spencer Leger          : CASSCF response                               
  Dagmar Lenk            : GEPOL surface, SMD, ORCA-2-JSON               
  Dimitrios Liakos       : Extrapolation schemes; Compound Job, initial MDCI parallelization 
  Dimitrios Manganas     : Further ROCIS development; embedding schemes. LFT, Crystal Embedding 
  Dimitrios Pantazis     : SARC Basis sets                               
  Anastasios Papadopoulos: AUTO-CI, single reference methods and gradients 
  Taras Petrenko         : pre 6.0 DFT Hessian and TD-DFT gradient, (ASA, deprecated), ECA, 1-Electron XAS/XES, NRVS 
  Peter Pinski           : DLPNO-MP2, DLPNO-MP2 Gradient                 
  Christoph Reimann      : Effective Core Potentials                     
  Marius Retegan         : Local ZFS, SOC                                
  Christoph Riplinger    : Optimizer, TS searches, QM/MM, DLPNO-CCSD(T), (RO)-DLPNO pert. Triples 
  Michael Roemelt        : Original ROCIS implementation                 
  Masaaki Saitow         : Open-shell DLPNO-CCSD energy and density      
  Barbara Sandhoefer     : DKH picture change effects                    
  Kantharuban Sivalingam : CASSCF convergence/infrastructure, NEVPT2 and variants, FIC-MRCI 
  Bernardo de Souza      : ESD, SOC TD-DFT                               
  Georgi L. Stoychev     : AutoAux, RI-MP2 NMR, DLPNO-MP2 response, X2C  
  Van Anh Tran           : RI-MP2 g-tensors                              
  Willem Van den Heuvel  : Paramagnetic NMR                              
  Zikuan Wang            : NOTCH, Electric field optimization            
  Frank Wennmohs         : Technical directorship and infrastructure     
  Hang Xu                : AUTO-CI-Response properties                   
                                                                         
[FACCTs GmbH]                                                            
  Markus Bursch, Miquel Garcia-Rates, Christoph Riplinger, Bernardo de Souza, Georgi L. Stoychev 
                                                                 
  APM, Basis sets (HGBS, AHGBS, def-TZVP (Ac-Lr), def2-XVPD (La-Lu)), CI-OPT, improved COSX, DLPNO-Multilevel,           
  DOCKER, DRACO, updates on ESD, GOAT, IRC, LR-CPCM, MBIS, meta-GGA TD-DFT gradient, ML-optimized integration grids, 
  MM, NACMEs, nearIR, NEB, NEB-TS, NL-DFT gradient (VV10), 2- and 3-layer-ONIOM, interface openCOSMO-RS, QMMM,   
  Crystal-QMMM, SF, symmetry and pop. for TD-DFT, r2SCAN hybrids, SOLVATOR                                   
                                                                         
[Other institutions]                                                     
  V. Asgeirsson          : NEB                                           
  Christoph Bannwarth    : sTDA-DFT, sTD-DFT, PBEh-3c, B97-3c, D3        
  Sebastian Ehlert       : rSCAN, r2SCAN, r2SCAN-3c, D4, dhf basis sets  
  Marvin Friede          : D4 for Fr, Ra, Ac-Lr                          
  Lars Goerigk           : TD-DFT with DH, B97 family of functionals     
  Stefan Grimme          : VdW corrections, initial TS optimization, DFT functionals, gCP, sTDA/sTD-DF 
  Waldemar Hujo          : DFT-NL                                        
  H. Jonsson             : NEB                                           
  Holger Kruse           : gCP                                           
  Marcel Mueller         : wB97X-3c, vDZP basis set                      
  Hagen Neugebauer       : wr2SCAN                                       
  Tobias Risthaus        : range-separated hybrid DFT                    
  Lukas Wittmann         : regularized MP2, r2SCAN double-hybrids, wr2SCAN        
                                                                         
We gratefully acknowledge several colleagues who have allowed us to      
interface, adapt or use parts of their codes:                            
  Ed Valeev, F. Pavosevic, A. Kumar             : LibInt (2-el integral package), F12 methods 
  Garnet Chan, S. Sharma, J. Yang, R. Olivares  : DMRG                   
  Ulf Ekstrom                                   : XCFun DFT Library      
  Mihaly Kallay                                 : mrcc  (arbitrary order and MRCC methods)
  Frank Weinhold                                : gennbo (NPA and NBO analysis)           
  Simon Mueller                                 : openCOSMO-RS                            
  Christopher J. Cramer and Donald G. Truhlar   : smd solvation model                     
  S Lehtola, MJT Oliveira, MAL Marques          : LibXC Library                           
  Liviu Ungur et al                             : ANISO software                          


 Your calculation uses the libint2 library for the computation of 2-el integrals
 For citations please refer to: http://libint.valeyev.net

 Your ORCA version has been built with support for libXC version: 6.2.2
 For citations please refer to: https://libxc.gitlab.io

 This ORCA versions uses:
   CBLAS   interface :  Fast vector & matrix operations
   LAPACKE interface :  Fast linear algebra routines
   SCALAPACK package :  Parallel linear algebra routines
   Shared memory     :  Shared parallel matrices
   BLAS/LAPACK       :  OpenBLAS 0.3.27  USE64BITINT DYNAMIC_ARCH NO_AFFINITY Zen SINGLE_THREADED
        Core in use  :  Zen
   Copyright (c) 2011-2014, The OpenBLAS Project


================================================================================

----- Orbital basis set information -----
Your calculation utilizes the basis: 6-31G*
   H-He, Li-Ne : W. J. Hehre, R. Ditchfield and J.A. Pople, J. Chem. Phys. 56, 2257 (1972).
                 Note: He and Ne are unpublished basis sets taken from the Gaussian program.
                 Note: Li and B from J. D. Dill and J. A. Pople, J. Chem. Phys. 62, 2921 (1975).
   Na - Ar     : M. M. Francl, W. J. Pietro, W. J. Hehre, J. S. Binkley, M. S. Gordon, 
                 D. J. DeFrees and J. A. Pople, J. Chem. Phys. 77, 3654 (1982).
   K - Zn      : V. A. Rassolov, J. A. Pople, M. A. Ratner, and T. L. Windus, J. Chem. Phys. 109, 1223 (1998).

================================================================================
                                        WARNINGS
                       Please study these warnings very carefully!
================================================================================


WARNING: Geometry Optimization
  ===> : Switching off AutoStart
         For restart on a previous wavefunction, please use MOREAD

================================================================================
                                       INPUT FILE
================================================================================
NAME = monomer_hf_opt.inp
|  1> ! HF 6-31G* Opt TightSCF
|  2> 
|  3> * xyz 0 1
|  4> O    -2.73977451   2.70754886   1.87870293
|  5> C    -2.48124516   1.54067634   1.70623814
|  6> C    -3.44783539   0.39925018   1.58608702
|  7> H    -4.04381038   0.35954683   2.49416722
|  8> C    -2.57148804  -0.83905115   1.41142399
|  9> C    -2.98062378  -1.49825892   0.06799322
| 10> C    -2.11251969  -1.10953366  -1.08664946
| 11> C    -1.42404858  -1.96758333  -1.81955144
| 12> C    -4.41220730  -0.98318976  -0.10759017
| 13> C    -4.35530619   0.46899357   0.34233953
| 14> C    -5.65904273   1.14841735   0.60385290
| 15> C    -6.85569698   0.63924561   0.36017866
| 16> H    -2.70121085  -1.55135414   2.22076522
| 17> N    -1.19509509   1.04872069   1.58764697
| 18> C    -0.00650739   1.88210608   1.71413852
| 19> C     0.15076296   2.93053093   0.62621884
| 20> C    -0.05467742   2.43895123  -0.79669323
| 21> C     0.67486650   1.17043365  -1.15068895
| 22> O     2.06445194   1.29792867  -0.88164967
| 23> C     2.76783524   0.07753480  -0.95272046
| 24> C     3.50892830  -0.20630160   0.33742340
| 25> O     2.65446757  -0.29952017   1.45954137
| 26> C     4.33899258  -1.47645422   0.17697640
| 27> C     5.18174965  -1.78041024   1.39790664
| 28> O     4.39805928  -2.21190454   2.48950377
| 29> O     5.23330682  -1.32092851  -0.91119709
| 30> C     4.56801175  -1.15672907  -2.13003942
| 31> O     5.56316204  -1.11454441  -3.10143732
| 32> C     3.75436672   0.11924379  -2.10123515
| 33> O     3.10798847   0.22977770  -3.34993702
| 34> C    -1.16286285  -0.32386507   1.47994380
| 35> O    -0.14883790  -0.98695461   1.44856693
| 36> H    -2.95898347  -2.57973314   0.16543513
| 37> H    -2.06498109  -0.05372858  -1.32981991
| 38> H    -0.81702897  -1.63573694  -2.64952571
| 39> H    -1.44360118  -3.02840004  -1.60531973
| 40> H    -5.07571098  -1.54090708   0.55292001
| 41> H    -4.77214266  -1.09911105  -1.12641095
| 42> H    -3.83362680   1.05145074  -0.42033469
| 43> H    -5.58378873   2.14553463   1.02143944
| 44> H    -7.75188580   1.20314515   0.57477558
| 45> H    -6.98125996  -0.34855805  -0.06118966
| 46> H     0.83702641   1.20390747   1.71075168
| 47> H    -0.04098919   2.36488950   2.68757610
| 48> H    -0.53246644   3.75530213   0.80911100
| 49> H     1.15830131   3.32716771   0.73623515
| 50> H    -1.11390336   2.25028053  -0.97590155
| 51> H     0.23537141   3.23268797  -1.48388185
| 52> H     0.51990477   0.93528209  -2.20538322
| 53> H     0.28513294   0.33254573  -0.57809798
| 54> H     2.06481230  -0.74096960  -1.13437495
| 55> H     4.19119395   0.61943947   0.54078484
| 56> H     1.80267769  -0.70253081   1.23536139
| 57> H     3.66867442  -2.32202162  -0.00974365
| 58> H     5.87169016  -2.58233040   1.15112926
| 59> H     5.76808835  -0.89627132   1.65773529
| 60> H     3.66904374  -1.58414790   2.57764623
| 61> H     3.90187656  -2.01153612  -2.29853506
| 62> H     5.17976428  -0.74186391  -3.90295583
| 63> H     4.44291408   0.95316470  -1.95202610
| 64> H     2.75123896   1.11804262  -3.43731716
| 65> *
| 66> 
| 67>                          ****END OF INPUT****
================================================================================

                       *****************************
                       * Geometry Optimization Run *
                       *****************************

Geometry optimization settings:
Update method            Update   .... BFGS
Choice of coordinates    CoordSys .... (2022) Redundant Internals
Initial Hessian          InHess   .... Almloef's Model
Max. no of cycles        MaxIter  .... 183

Convergence Tolerances:
Energy Change            TolE     ....  5.0000e-06 Eh
Max. Gradient            TolMAXG  ....  3.0000e-04 Eh/bohr
RMS Gradient             TolRMSG  ....  1.0000e-04 Eh/bohr
Max. Displacement        TolMAXD  ....  4.0000e-03 bohr
RMS Displacement         TolRMSD  ....  2.0000e-03 bohr
Strict Convergence                .... False

------------------------------------------------------------------------------
                        ORCA OPTIMIZATION COORDINATE SETUP
------------------------------------------------------------------------------

The optimization will be done in redundant internal coordinates (2022)
Making redundant internal coordinates   ...  (2022 redundants) done
Evaluating the initial hessian          ...  (Almloef) done
Evaluating the coordinates              ...  done
Calculating the B-matrix                .... done
Calculating the G-matrix                .... done
Diagonalizing the G-matrix              .... done
Small eigenvalue found = 1.017e-03
Small eigenvalue found = 2.707e-03
Small eigenvalue found = 4.816e-03
Small eigenvalue found = 9.141e-03
Small eigenvalue found = 1.429e-02
Small eigenvalue found = 2.044e-02
Small eigenvalue found = 2.479e-02
Small eigenvalue found = 2.745e-02
The first mode is                       ....  150
The number of degrees of freedom        ....  177

    -----------------------------------------------------------------
                    Redundant Internal Coordinates


    -----------------------------------------------------------------
         Definition                    Initial Value    Approx d2E/dq
    -----------------------------------------------------------------
      1. B(C   1,O   0)                  1.2075         1.093869   
      2. B(C   2,C   1)                  1.5005         0.416291   
      3. B(H   3,C   2)                  1.0869         0.364212   
      4. B(C   4,C   2)                  1.5271         0.377645   
      5. B(C   5,C   4)                  1.5514         0.345367   
      6. B(C   6,C   5)                  1.4960         0.423329   
      7. B(C   7,C   6)                  1.3219         0.802430   
      8. B(C   8,C   5)                  1.5315         0.371493   
      9. B(C   9,C   8)                  1.5214         0.385634   
     10. B(C   9,C   2)                  1.5412         0.358526   
     11. B(C  10,C   9)                  1.4932         0.427604   
     12. B(C  11,C  10)                  1.3231         0.798842   
     13. B(H  12,C   4)                  1.0859         0.365529   
     14. B(N  13,C   1)                  1.3821         0.576025   
     15. B(C  14,N  13)                  1.4571         0.437270   
     16. B(C  15,C  14)                  1.5190         0.388916   
     17. B(C  16,C  15)                  1.5194         0.388428   
     18. B(C  17,C  16)                  1.5056         0.408681   
     19. B(O  18,C  17)                  1.4211         0.499142   
     20. B(C  19,O  18)                  1.4104         0.519239   
     21. B(C  20,C  19)                  1.5147         0.395203   
     22. B(O  21,C  20)                  1.4135         0.513341   
     23. B(C  22,C  20)                  1.5258         0.379396   
     24. B(C  23,C  22)                  1.5144         0.395661   
     25. B(O  24,C  23)                  1.4114         0.517361   
     26. B(O  25,C  22)                  1.4171         0.506612   
     27. B(C  26,O  25)                  1.3983         0.542854   
     28. B(O  27,C  26)                  1.3913         0.556930   
     29. B(C  28,C  26)                  1.5136         0.396788   
     30. B(C  28,C  19)                  1.5146         0.395291   
     31. B(O  29,C  28)                  1.4104         0.519158   
     32. B(C  30,N  13)                  1.3772         0.586578   
     33. B(C  30,C   4)                  1.5014         0.414892   
     34. B(O  31,C  30)                  1.2120         1.076167   
     35. B(H  32,C   5)                  1.0861         0.365336   
     36. B(H  33,C   6)                  1.0845         0.367465   
     37. B(H  34,C   7)                  1.0805         0.372907   
     38. B(H  35,C   7)                  1.0824         0.370283   
     39. B(H  36,C   8)                  1.0898         0.360428   
     40. B(H  37,C   8)                  1.0867         0.364449   
     41. B(H  38,C   9)                  1.0923         0.357095   
     42. B(H  39,C  10)                  1.0836         0.368607   
     43. B(H  40,C  11)                  1.0804         0.373074   
     44. B(H  41,C  11)                  1.0812         0.371881   
     45. B(H  42,C  14)                  1.0824         0.370343   
     46. B(H  43,C  14)                  1.0871         0.363918   
     47. B(H  44,C  15)                  1.0865         0.364749   
     48. B(H  45,C  15)                  1.0884         0.362257   
     49. B(H  46,C  16)                  1.0907         0.359148   
     50. B(H  47,C  16)                  1.0892         0.361149   
     51. B(H  48,C  17)                  1.0916         0.357930   
     52. B(H  48,H  34)                  2.9317         0.000079   
     53. B(H  49,C  17)                  1.0871         0.363943   
     54. B(H  50,C  19)                  1.0942         0.354637   
     55. B(H  51,C  20)                  1.0903         0.359742   
     56. B(H  52,O  21)                  0.9686         0.503753   
     57. B(H  52,O  31)                  1.9836         0.012101   
     58. B(H  53,C  22)                  1.0951         0.353457   
     59. B(H  54,C  23)                  1.0863         0.365062   
     60. B(H  55,C  23)                  1.0922         0.357138   
     61. B(H  56,O  24)                  0.9661         0.508471   
     62. B(H  56,O  21)                  1.9824         0.012157   
     63. B(H  57,C  26)                  1.0967         0.351303   
     64. B(H  58,O  27)                  0.9635         0.513329   
     65. B(H  58,O  29)                  2.3542         0.003102   
     66. B(H  59,C  28)                  1.0917         0.357873   
     67. B(H  60,O  29)                  0.9612         0.517655   
     68. A(O   0,C   1,N  13)          123.7407         0.468580   
     69. A(O   0,C   1,C   2)          127.4871         0.444605   
     70. A(C   2,C   1,N  13)          108.7722         0.396558   
     71. A(C   1,C   2,H   3)          108.3064         0.330777   
     72. A(H   3,C   2,C   4)          112.3715         0.325504   
     73. A(H   3,C   2,C   9)          110.6723         0.322739   
     74. A(C   1,C   2,C   9)          114.1727         0.367553   
     75. A(C   4,C   2,C   9)          106.3975         0.361478   
     76. A(C   1,C   2,C   4)          104.8523         0.370848   
     77. A(H  12,C   4,C  30)          107.6458         0.330790   
     78. A(C   2,C   4,H  12)          112.2165         0.325697   
     79. A(C   5,C   4,C  30)          115.6417         0.364995   
     80. A(C   2,C   4,C   5)          106.9941         0.359181   
     81. A(C   2,C   4,C  30)          104.7700         0.370633   
     82. A(C   5,C   4,H  12)          109.5833         0.320958   
     83. A(C   6,C   5,C   8)          111.5031         0.370870   
     84. A(C   4,C   5,C   8)          101.7060         0.358179   
     85. A(C   6,C   5,H  32)          108.4475         0.331865   
     86. A(C   4,C   5,H  32)          109.8874         0.320931   
     87. A(C   4,C   5,C   6)          113.8867         0.366255   
     88. A(C   8,C   5,H  32)          111.3337         0.324790   
     89. A(C   5,C   6,C   7)          124.1594         0.424543   
     90. A(C   5,C   6,H  33)          116.8387         0.332185   
     91. A(C   7,C   6,H  33)          118.9988         0.370059   
     92. A(C   6,C   7,H  35)          121.1324         0.370545   
     93. A(C   6,C   7,H  34)          121.2739         0.370996   
     94. A(H  34,C   7,H  35)          117.5926         0.293730   
     95. A(C   9,C   8,H  36)          109.3923         0.326066   
     96. A(C   5,C   8,H  36)          109.1183         0.324070   
     97. A(H  36,C   8,H  37)          108.1788         0.291430   
     98. A(C   5,C   8,C   9)          104.6051         0.364982   
     99. A(C   5,C   8,H  37)          112.4083         0.324661   
    100. A(C   9,C   8,H  37)          113.0460         0.326662   
    101. A(C   2,C   9,C  10)          113.1629         0.369249   
    102. A(C  10,C   9,H  38)          107.2566         0.331165   
    103. A(C   2,C   9,C   8)          102.5618         0.362772   
    104. A(C   8,C   9,H  38)          108.6852         0.325568   
    105. A(C   2,C   9,H  38)          107.8420         0.321697   
    106. A(C   8,C   9,C  10)          116.9656         0.373910   
    107. A(C   9,C  10,H  39)          115.1840         0.332910   
    108. A(C  11,C  10,H  39)          119.2014         0.369971   
    109. A(C   9,C  10,C  11)          125.6125         0.424966   
    110. A(H  40,C  11,H  41)          117.2534         0.293951   
    111. A(C  10,C  11,H  41)          121.8959         0.370534   
    112. A(C  10,C  11,H  40)          120.8504         0.370738   
    113. A(C   1,N  13,C  30)          112.5347         0.418645   
    114. A(C   1,N  13,C  14)          123.2321         0.397441   
    115. A(C  14,N  13,C  30)          123.8982         0.398711   
    116. A(N  13,C  14,C  15)          114.6465         0.373544   
    117. A(H  42,C  14,H  43)          107.8053         0.292610   
    118. A(C  15,C  14,H  43)          109.7591         0.327040   
    119. A(N  13,C  14,H  43)          107.8090         0.331427   
    120. A(C  15,C  14,H  42)          110.4589         0.327984   
    121. A(N  13,C  14,H  42)          106.0854         0.332389   
    122. A(H  44,C  15,H  45)          106.7664         0.291700   
    123. A(C  14,C  15,C  16)          115.6842         0.368316   
    124. A(C  16,C  15,H  45)          109.7394         0.326726   
    125. A(C  14,C  15,H  45)          105.9604         0.326793   
    126. A(C  16,C  15,H  44)          108.5550         0.327095   
    127. A(C  14,C  15,H  44)          109.7711         0.327163   
    128. A(C  17,C  16,H  47)          109.6709         0.329310   
    129. A(H  46,C  16,H  47)          106.3198         0.290851   
    130. A(C  15,C  16,H  47)          108.6066         0.326561   
    131. A(C  17,C  16,H  46)          106.6306         0.329008   
    132. A(C  15,C  16,H  46)          109.9466         0.326262   
    133. A(C  15,C  16,C  17)          115.2949         0.371468   
    134. A(C  16,C  17,O  18)          110.7146         0.385505   
    135. A(O  18,C  17,H  49)          108.6618         0.338802   
    136. A(C  16,C  17,H  49)          110.5998         0.329729   
    137. A(O  18,C  17,H  48)          109.9399         0.337862   
    138. A(C  16,C  17,H  48)          109.8695         0.328823   
    139. A(H  48,C  17,H  49)          106.9755         0.291048   
    140. A(C  17,O  18,C  19)          113.6084         0.399440   
    141. A(O  18,C  19,C  20)          111.2992         0.385903   
    142. A(C  28,C  19,H  50)          108.2527         0.326524   
    143. A(C  20,C  19,H  50)          108.3970         0.326512   
    144. A(O  18,C  19,H  50)          109.5863         0.339570   
    145. A(C  20,C  19,C  28)          109.4118         0.370445   
    146. A(O  18,C  19,C  28)          109.8293         0.385918   
    147. A(O  21,C  20,C  22)          110.9434         0.382413   
    148. A(C  19,C  20,C  22)          109.4268         0.367843   
    149. A(C  19,C  20,O  21)          113.1271         0.385137   
    150. A(O  21,C  20,H  51)          106.2697         0.339733   
    151. A(C  19,C  20,H  51)          108.8520         0.327282   
    152. A(C  22,C  20,H  51)          108.0385         0.325091   
    153. A(C  20,O  21,H  52)          112.0428         0.356434   
    154. A(O  25,C  22,H  53)          109.8843         0.337990   
    155. A(C  23,C  22,H  53)          108.8529         0.326396   
    156. A(C  20,C  22,H  53)          109.1298         0.324151   
    157. A(C  23,C  22,O  25)          106.8534         0.384331   
    158. A(C  20,C  22,O  25)          109.4338         0.381538   
    159. A(C  20,C  22,C  23)          112.6474         0.367916   
    160. A(H  54,C  23,H  55)          108.0989         0.291087   
    161. A(C  22,C  23,H  55)          109.1512         0.326953   
    162. A(O  24,C  23,H  54)          107.6191         0.341012   
    163. A(C  22,C  23,H  54)          108.5710         0.328138   
    164. A(O  24,C  23,H  55)          111.1966         0.339764   
    165. A(C  22,C  23,O  24)          112.0812         0.385738   
    166. A(C  23,O  24,H  56)          106.9130         0.357473   
    167. A(C  22,O  25,C  26)          112.4561         0.403637   
    168. A(C  28,C  26,H  57)          109.4797         0.326220   
    169. A(O  27,C  26,H  57)          110.5366         0.343032   
    170. A(O  25,C  26,H  57)          109.3528         0.341565   
    171. A(O  27,C  26,C  28)          111.8529         0.390923   
    172. A(O  25,C  26,C  28)          109.7659         0.389179   
    173. A(O  25,C  26,O  27)          105.7737         0.410454   
    174. A(C  26,O  27,H  58)          107.9343         0.362577   
    175. A(O  29,C  28,H  59)          110.4990         0.340077   
    176. A(C  26,C  28,H  59)          107.9094         0.327217   
    177. A(C  19,C  28,H  59)          109.1599         0.327013   
    178. A(C  26,C  28,O  29)          107.1920         0.386162   
    179. A(C  19,C  28,O  29)          112.0243         0.385908   
    180. A(C  19,C  28,C  26)          109.9591         0.370700   
    181. A(C  28,O  29,H  60)          108.8443         0.358774   
    182. A(N  13,C  30,O  31)          124.5335         0.468737   
    183. A(C   4,C  30,O  31)          126.5861         0.443024   
    184. A(C   4,C  30,N  13)          108.8804         0.397589   
    185. D(C   9,C   2,C   1,O   0)     65.1920         0.012822   
    186. D(H   3,C   2,C   1,N  13)    121.3643         0.012822   
    187. D(H   3,C   2,C   1,O   0)    -58.5929         0.012822   
    188. D(C   4,C   2,C   1,N  13)      1.1992         0.012822   
    189. D(C   4,C   2,C   1,O   0)   -178.7580         0.012822   
    190. D(C   5,C   4,C   2,H   3)    120.7463         0.011374   
    191. D(H  12,C   4,C   2,H   3)      0.5205         0.011374   
    192. D(C   5,C   4,C   2,C   1)   -121.8310         0.011374   
    193. D(H  12,C   4,C   2,C   1)    117.9433         0.011374   
    194. D(H  12,C   4,C   2,C   9)   -120.7486         0.011374   
    195. D(C   5,C   4,C   2,C   9)     -0.5228         0.011374   
    196. D(C   6,C   5,C   4,C  30)    -20.2020         0.009631   
    197. D(C   8,C   5,C   4,C  30)   -140.2791         0.009631   
    198. D(C   8,C   5,C   4,C   2)    -24.0218         0.009631   
    199. D(C   6,C   5,C   4,C   2)     96.0552         0.009631   
    200. D(C   6,C   5,C   4,H  12)   -142.0494         0.009631   
    201. D(C   8,C   5,C   4,H  12)     97.8736         0.009631   
    202. D(C   7,C   6,C   5,C   8)   -124.4723         0.013245   
    203. D(H  33,C   6,C   5,C   4)    -59.5156         0.013245   
    204. D(C   7,C   6,C   5,C   4)    121.1361         0.013245   
    205. D(C   7,C   6,C   5,H  32)     -1.5421         0.013245   
    206. D(H  33,C   6,C   5,C   8)     54.8761         0.013245   
    207. D(H  35,C   7,C   6,C   5)     -0.8924         0.046559   
    208. D(H  34,C   7,C   6,H  33)      0.1587         0.046559   
    209. D(H  34,C   7,C   6,C   5)    179.4939         0.046559   
    210. D(H  35,C   7,C   6,H  33)    179.7724         0.046559   
    211. D(H  36,C   8,C   5,C   4)    -76.6719         0.011027   
    212. D(H  36,C   8,C   5,C   6)    161.5860         0.011027   
    213. D(C   9,C   8,C   5,H  32)    157.2879         0.011027   
    214. D(C   9,C   8,C   5,C   6)    -81.4470         0.011027   
    215. D(C   9,C   8,C   5,C   4)     40.2951         0.011027   
    216. D(H  36,C   8,C   5,H  32)     40.3209         0.011027   
    217. D(C  10,C   9,C   8,H  37)     71.9611         0.011835   
    218. D(C  10,C   9,C   8,C   5)   -165.4264         0.011835   
    219. D(C   2,C   9,C   8,H  37)   -163.6005         0.011835   
    220. D(C   2,C   9,C   8,H  36)     75.7901         0.011835   
    221. D(C   2,C   9,C   8,C   5)    -40.9880         0.011835   
    222. D(C  10,C   9,C   2,C   4)    152.0356         0.010319   
    223. D(C  10,C   9,C   2,C   1)    -92.8164         0.010319   
    224. D(C   8,C   9,C   2,C   4)     25.1197         0.010319   
    225. D(C   8,C   9,C   2,H   3)    -97.2299         0.010319   
    226. D(C  10,C   9,C   8,H  36)    -48.6483         0.011835   
    227. D(C   8,C   9,C   2,C   1)    140.2677         0.010319   
    228. D(C  10,C   9,C   2,H   3)     29.6861         0.010319   
    229. D(H  39,C  10,C   9,C   8)    173.8538         0.013507   
    230. D(H  39,C  10,C   9,C   2)     54.9665         0.013507   
    231. D(C  11,C  10,C   9,H  38)    115.6306         0.013507   
    232. D(C  11,C  10,C   9,C   8)     -6.6748         0.013507   
    233. D(C  11,C  10,C   9,C   2)   -125.5621         0.013507   
    234. D(H  41,C  11,C  10,H  39)    179.6348         0.046099   
    235. D(H  41,C  11,C  10,C   9)      0.1827         0.046099   
    236. D(H  40,C  11,C  10,H  39)     -0.1772         0.046099   
    237. D(H  40,C  11,C  10,C   9)   -179.6292         0.046099   
    238. D(C  30,N  13,C   1,C   2)     -3.7320         0.026589   
    239. D(C  30,N  13,C   1,O   0)    176.2272         0.026589   
    240. D(C  14,N  13,C   1,C   2)   -177.3138         0.026589   
    241. D(C  14,N  13,C   1,O   0)      2.6453         0.026589   
    242. D(H  43,C  14,N  13,C   1)     57.1463         0.016303   
    243. D(H  42,C  14,N  13,C  30)     -0.4375         0.016303   
    244. D(H  42,C  14,N  13,C   1)    172.4168         0.016303   
    245. D(C  15,C  14,N  13,C  30)    121.7401         0.016303   
    246. D(C  15,C  14,N  13,C   1)    -65.4056         0.016303   
    247. D(C  16,C  15,C  14,N  13)    -47.1196         0.012028   
    248. D(H  44,C  15,C  14,H  43)    -45.3746         0.012028   
    249. D(H  44,C  15,C  14,H  42)   -164.1123         0.012028   
    250. D(H  44,C  15,C  14,N  13)     76.1167         0.012028   
    251. D(C  16,C  15,C  14,H  43)   -168.6109         0.012028   
    252. D(C  16,C  15,C  14,H  42)     72.6515         0.012028   
    253. D(H  46,C  16,C  15,H  45)   -167.3878         0.011999   
    254. D(H  46,C  16,C  15,H  44)    -51.0457         0.011999   
    255. D(H  46,C  16,C  15,C  14)     72.8276         0.011999   
    256. D(C  17,C  16,C  15,H  45)     72.0640         0.011999   
    257. D(C  17,C  16,C  15,H  44)   -171.5939         0.011999   
    258. D(C  17,C  16,C  15,C  14)    -47.7205         0.011999   
    259. D(H  48,C  17,C  16,H  47)    -53.3052         0.013233   
    260. D(H  48,C  17,C  16,H  46)     61.4169         0.013233   
    261. D(H  48,C  17,C  16,C  15)   -176.2423         0.013233   
    262. D(O  18,C  17,C  16,H  47)     68.3192         0.013233   
    263. D(O  18,C  17,C  16,H  46)   -176.9587         0.013233   
    264. D(O  18,C  17,C  16,C  15)    -54.6179         0.013233   
    265. D(C  19,O  18,C  17,H  49)     47.2093         0.019694   
    266. D(C  19,O  18,C  17,H  48)    -69.5564         0.019694   
    267. D(C  19,O  18,C  17,C  16)    168.8606         0.019694   
    268. D(H  50,C  19,O  18,C  17)     -4.1144         0.021373   
    269. D(C  28,C  19,O  18,C  17)    114.6824         0.021373   
    270. D(C  20,C  19,O  18,C  17)   -123.9994         0.021373   
    271. D(C  22,C  20,C  19,H  50)     63.7628         0.012403   
    272. D(C  22,C  20,C  19,C  28)    -54.0883         0.012403   
    273. D(C  22,C  20,C  19,O  18)   -175.6500         0.012403   
    274. D(O  21,C  20,C  19,H  50)    -60.4851         0.012403   
    275. D(O  21,C  20,C  19,C  28)   -178.3362         0.012403   
    276. D(O  21,C  20,C  19,O  18)     60.1021         0.012403   
    277. D(H  52,O  21,C  20,H  51)    154.5505         0.022650   
    278. D(H  52,O  21,C  20,C  22)    -88.2499         0.022650   
    279. D(H  52,O  21,C  20,C  19)     35.1661         0.022650   
    280. D(O  25,C  22,C  20,H  51)    -60.7712         0.011474   
    281. D(O  25,C  22,C  20,O  21)   -176.8831         0.011474   
    282. D(O  25,C  22,C  20,C  19)     57.6011         0.011474   
    283. D(C  23,C  22,C  20,H  51)     57.9360         0.011474   
    284. D(C  23,C  22,C  20,O  21)    -58.1759         0.011474   
    285. D(C  23,C  22,C  20,C  19)    176.3083         0.011474   
    286. D(H  54,C  23,C  22,H  53)     68.9035         0.012431   
    287. D(H  54,C  23,C  22,O  25)    -49.7147         0.012431   
    288. D(H  54,C  23,C  22,C  20)   -169.9193         0.012431   
    289. D(O  24,C  23,C  22,H  53)    -49.8396         0.012431   
    290. D(O  24,C  23,C  22,O  25)   -168.4579         0.012431   
    291. D(O  24,C  23,C  22,C  20)     71.3375         0.012431   
    292. D(H  56,O  24,C  23,H  55)     73.8718         0.021212   
    293. D(H  56,O  24,C  23,H  54)   -167.9145         0.021212   
    294. D(H  56,O  24,C  23,C  22)    -48.6107         0.021212   
    295. D(C  26,O  25,C  22,H  53)     56.5438         0.020308   
    296. D(C  26,O  25,C  22,C  23)    174.4881         0.020308   
    297. D(C  26,O  25,C  22,C  20)    -63.2678         0.020308   
    298. D(H  57,C  26,O  25,C  22)    -56.7989         0.023456   
    299. D(C  28,C  26,O  25,C  22)     63.3194         0.023456   
    300. D(O  27,C  26,O  25,C  22)   -175.8492         0.023456   
    301. D(H  58,O  27,C  26,H  57)     78.6039         0.024756   
    302. D(H  58,O  27,C  26,C  28)    -43.6661         0.024756   
    303. D(H  58,O  27,C  26,O  25)   -163.1317         0.024756   
    304. D(C  19,C  28,C  26,O  25)    -57.9234         0.012499   
    305. D(O  29,C  28,C  19,H  50)     55.3720         0.012409   
    306. D(O  29,C  28,C  19,C  20)    173.3134         0.012409   
    307. D(O  29,C  28,C  19,O  18)    -64.2426         0.012409   
    308. D(C  26,C  28,C  19,H  50)    -63.7142         0.012409   
    309. D(C  26,C  28,C  19,C  20)     54.2272         0.012409   
    310. D(C  19,C  28,C  26,O  27)   -175.0100         0.012499   
    311. D(C  26,C  28,C  19,O  18)    176.6713         0.012409   
    312. D(O  29,C  28,C  26,H  57)    -59.8868         0.012499   
    313. D(O  29,C  28,C  26,O  27)     62.9856         0.012499   
    314. D(O  29,C  28,C  26,O  25)   -179.9278         0.012499   
    315. D(C  19,C  28,C  26,H  57)     62.1176         0.012499   
    316. D(H  60,O  29,C  28,H  59)    -49.7720         0.023190   
    317. D(H  60,O  29,C  28,C  26)   -167.1159         0.023190   
    318. D(H  60,O  29,C  28,C  19)     72.1802         0.023190   
    319. D(O  31,C  30,N  13,C   1)   -175.2369         0.027638   
    320. D(C   4,C  30,N  13,C  14)    178.2429         0.027638   
    321. D(C   4,C  30,N  13,C   1)      4.7110         0.027638   
    322. D(O  31,C  30,C   4,C   5)    -66.1954         0.012738   
    323. D(O  31,C  30,C   4,C   2)    176.2990         0.012738   
    324. D(N  13,C  30,C   4,H  12)   -123.2648         0.012738   
    325. D(N  13,C  30,C   4,C   5)    113.8580         0.012738   
    326. D(O  31,C  30,N  13,C  14)     -1.7050         0.027638   
    327. D(N  13,C  30,C   4,C   2)     -3.6476         0.012738   
    -----------------------------------------------------------------

Number of atoms                         .... 61
Number of degrees of freedom            .... 327


         *************************************************************
         *                GEOMETRY OPTIMIZATION CYCLE   1            *
         *************************************************************
---------------------------------
CARTESIAN COORDINATES (ANGSTROEM)
---------------------------------
  O     -2.739775    2.707549    1.878703
  C     -2.481245    1.540676    1.706238
  C     -3.447835    0.399250    1.586087
  H     -4.043810    0.359547    2.494167
  C     -2.571488   -0.839051    1.411424
  C     -2.980624   -1.498259    0.067993
  C     -2.112520   -1.109534   -1.086649
  C     -1.424049   -1.967583   -1.819551
  C     -4.412207   -0.983190   -0.107590
  C     -4.355306    0.468994    0.342340
  C     -5.659043    1.148417    0.603853
  C     -6.855697    0.639246    0.360179
  H     -2.701211   -1.551354    2.220765
  N     -1.195095    1.048721    1.587647
  C     -0.006507    1.882106    1.714139
  C      0.150763    2.930531    0.626219
  C     -0.054677    2.438951   -0.796693
  C      0.674867    1.170434   -1.150689
  O      2.064452    1.297929   -0.881650
  C      2.767835    0.077535   -0.952720
  C      3.508928   -0.206302    0.337423
  O      2.654468   -0.299520    1.459541
  C      4.338993   -1.476454    0.176976
  C      5.181750   -1.780410    1.397907
  O      4.398059   -2.211905    2.489504
  O      5.233307   -1.320929   -0.911197
  C      4.568012   -1.156729   -2.130039
  O      5.563162   -1.114544   -3.101437
  C      3.754367    0.119244   -2.101235
  O      3.107988    0.229778   -3.349937
  C     -1.162863   -0.323865    1.479944
  O     -0.148838   -0.986955    1.448567
  H     -2.958983   -2.579733    0.165435
  H     -2.064981   -0.053729   -1.329820
  H     -0.817029   -1.635737   -2.649526
  H     -1.443601   -3.028400   -1.605320
  H     -5.075711   -1.540907    0.552920
  H     -4.772143   -1.099111   -1.126411
  H     -3.833627    1.051451   -0.420335
  H     -5.583789    2.145535    1.021439
  H     -7.751886    1.203145    0.574776
  H     -6.981260   -0.348558   -0.061190
  H      0.837026    1.203907    1.710752
  H     -0.040989    2.364889    2.687576
  H     -0.532466    3.755302    0.809111
  H      1.158301    3.327168    0.736235
  H     -1.113903    2.250281   -0.975902
  H      0.235371    3.232688   -1.483882
  H      0.519905    0.935282   -2.205383
  H      0.285133    0.332546   -0.578098
  H      2.064812   -0.740970   -1.134375
  H      4.191194    0.619439    0.540785
  H      1.802678   -0.702531    1.235361
  H      3.668674   -2.322022   -0.009744
  H      5.871690   -2.582330    1.151129
  H      5.768088   -0.896271    1.657735
  H      3.669044   -1.584148    2.577646
  H      3.901877   -2.011536   -2.298535
  H      5.179764   -0.741864   -3.902956
  H      4.442914    0.953165   -1.952026
  H      2.751239    1.118043   -3.437317

----------------------------
CARTESIAN COORDINATES (A.U.)
----------------------------
  NO LB      ZA    FRAG     MASS         X           Y           Z
   0 O     8.0000    0    15.999   -5.177423    5.116526    3.550234
   1 C     6.0000    0    12.011   -4.688874    2.911456    3.224323
   2 C     6.0000    0    12.011   -6.515465    0.754473    2.997270
   3 H     1.0000    0     1.008   -7.641694    0.679445    4.713293
   4 C     6.0000    0    12.011   -4.859408   -1.585577    2.667205
   5 C     6.0000    0    12.011   -5.632563   -2.831299    0.128489
   6 C     6.0000    0    12.011   -3.992084   -2.096715   -2.053470
   7 C     6.0000    0    12.011   -2.691062   -3.718194   -3.438454
   8 C     6.0000    0    12.011   -8.337863   -1.857959   -0.203316
   9 C     6.0000    0    12.011   -8.230336    0.886269    0.646928
  10 C     6.0000    0    12.011  -10.694041    2.170194    1.141117
  11 C     6.0000    0    12.011  -12.955390    1.207999    0.680639
  12 H     1.0000    0     1.008   -5.104549   -2.931634    4.196638
  13 N     7.0000    0    14.007   -2.258402    1.981795    3.000218
  14 C     6.0000    0    12.011   -0.012297    3.556665    3.239252
  15 C     6.0000    0    12.011    0.284901    5.537901    1.183382
  16 C     6.0000    0    12.011   -0.103325    4.608950   -1.505532
  17 C     6.0000    0    12.011    1.275313    2.211799   -2.174487
  18 O     8.0000    0    15.999    3.901249    2.452730   -1.666076
  19 C     6.0000    0    12.011    5.230451    0.146520   -1.800381
  20 C     6.0000    0    12.011    6.630914   -0.389854    0.637638
  21 O     8.0000    0    15.999    5.016217   -0.566011    2.758133
  22 C     6.0000    0    12.011    8.199508   -2.790094    0.334437
  23 C     6.0000    0    12.011    9.792088   -3.364488    2.641661
  24 O     8.0000    0    15.999    8.311128   -4.179894    4.704480
  25 O     8.0000    0    15.999    9.889517   -2.496193   -1.721913
  26 C     6.0000    0    12.011    8.632291   -2.185901   -4.025191
  27 O     8.0000    0    15.999   10.512853   -2.106184   -5.860867
  28 C     6.0000    0    12.011    7.094725    0.225338   -3.970759
  29 O     8.0000    0    15.999    5.873247    0.434217   -6.330464
  30 C     6.0000    0    12.011   -2.197492   -0.612016    2.796688
  31 O     8.0000    0    15.999   -0.281263   -1.865074    2.737395
  32 H     1.0000    0     1.008   -5.591668   -4.874989    0.312627
  33 H     1.0000    0     1.008   -3.902249   -0.101532   -2.512995
  34 H     1.0000    0     1.008   -1.543961   -3.091095   -5.006878
  35 H     1.0000    0     1.008   -2.728011   -5.722847   -3.033615
  36 H     1.0000    0     1.008   -9.591704   -2.911892    1.044867
  37 H     1.0000    0     1.008   -9.018043   -2.077019   -2.128608
  38 H     1.0000    0     1.008   -7.244505    1.986954   -0.794317
  39 H     1.0000    0     1.008  -10.551831    4.054473    1.930241
  40 H     1.0000    0     1.008  -14.648941    2.273615    1.086168
  41 H     1.0000    0     1.008  -13.192669   -0.658679   -0.115632
  42 H     1.0000    0     1.008    1.581751    2.275055    3.232852
  43 H     1.0000    0     1.008   -0.077458    4.468993    5.078783
  44 H     1.0000    0     1.008   -1.006216    7.096493    1.528998
  45 H     1.0000    0     1.008    2.188872    6.287436    1.391283
  46 H     1.0000    0     1.008   -2.104972    4.252414   -1.844187
  47 H     1.0000    0     1.008    0.444788    6.108895   -2.804130
  48 H     1.0000    0     1.008    0.982478    1.767427   -4.167570
  49 H     1.0000    0     1.008    0.538823    0.628420   -1.092447
  50 H     1.0000    0     1.008    3.901930   -1.400230   -2.143658
  51 H     1.0000    0     1.008    7.920209    1.170571    1.021935
  52 H     1.0000    0     1.008    3.406567   -1.327591    2.334495
  53 H     1.0000    0     1.008    6.932790   -4.387985   -0.018413
  54 H     1.0000    0     1.008   11.095886   -4.879897    2.175319
  55 H     1.0000    0     1.008   10.900107   -1.693707    3.132666
  56 H     1.0000    0     1.008    6.933488   -2.993606    4.871045
  57 H     1.0000    0     1.008    7.373478   -3.801252   -4.343602
  58 H     1.0000    0     1.008    9.788336   -1.401920   -7.375518
  59 H     1.0000    0     1.008    8.395891    1.801220   -3.688795
  60 H     1.0000    0     1.008    5.199088    2.112794   -6.495588

--------------------------------
INTERNAL COORDINATES (ANGSTROEM)
--------------------------------
 O      0   0   0     0.000000000000     0.00000000     0.00000000
 C      1   0   0     1.207548345422     0.00000000     0.00000000
 C      2   1   0     1.500528787828   127.48711576     0.00000000
 H      3   2   1     1.086909469247   108.30638909   301.40708962
 C      3   2   1     1.527050109126   104.85231997   181.24203183
 C      5   3   2     1.551371384149   106.99407128   238.16904011
 C      6   5   3     1.495965159124   113.88670923    96.05523012
 C      7   6   5     1.321887672149   124.15938064   121.13611150
 C      6   5   3     1.531521185346   101.70601863   335.97818032
 C      9   6   5     1.521351667167   104.60505255    40.29509899
 C     10   9   6     1.493229681345   116.96557827   194.57355705
 C     11  10   9     1.323107852783   125.61254759   353.32520560
 H      5   3   2     1.085926693463   112.21647886   117.94326539
 N      2   1   3     1.382123811288   123.74065000   180.04873336
 C     14   2   1     1.457145168155   123.23213560     2.64534660
 C     15  14   2     1.519045048449   114.64653321   294.59442179
 C     16  15  14     1.519386425548   115.68423416   312.88044482
 C     17  16  15     1.505551112303   115.29494213   312.27945431
 O     18  17  16     1.421120969294   110.71462687   305.38209243
 C     19  18  17     1.410375950534   113.60844519   168.86063109
 C     20  19  18     1.514679241635   111.29917847   236.00060828
 O     21  20  19     1.413485613475   113.12713743    60.10209804
 C     21  20  19     1.525790820143   109.42677361   184.34998737
 C     23  21  20     1.514364352484   112.64740077   176.30828875
 O     24  23  21     1.411361832128   112.08115079    71.33750964
 O     23  21  20     1.417077185857   109.43384212    57.60111848
 C     26  23  21     1.398268790921   112.45607538   296.73224364
 O     27  26  23     1.391300659581   105.77372936   184.15076929
 C     27  26  23     1.513589990807   109.76585974    63.31937502
 O     29  27  26     1.410418004520   107.19204446   180.07218918
 C     14   2   1     1.377182108030   112.53473510   176.22718041
 O     31  14   2     1.211989622584   124.53353941   184.76306097
 H      6   5   3     1.086070769962   109.88736888   217.94112212
 H      7   6   5     1.084488890306   116.83866034   300.48444003
 H      8   7   6     1.080486983884   121.27392626   179.49387167
 H      8   7   6     1.082409174920   121.13242530   359.10757171
 H      9   6   5     1.089752008617   109.11830242   283.32811300
 H      9   6   5     1.086732253415   112.40827574   163.32168840
 H     10   9   6     1.092280965085   108.68516376    73.01168489
 H     11  10   9     1.083644108082   115.18404311   173.85380331
 H     12  11  10     1.080365183805   120.85042603   180.37083227
 H     12  11  10     1.081236973913   121.89592111     0.18274764
 H     15  14   2     1.082365047955   106.08541552   172.41684996
 H     15  14   2     1.087129038944   107.80904987    57.14633392
 H     16  15  14     1.086507932582   109.77105337    76.11665933
 H     16  15  14     1.088373947885   105.96044137   191.05441355
 H     17  16  15     1.090720792396   109.94656290    72.82764375
 H     17  16  15     1.089208215020   108.60663470   188.77837950
 H     18  17  16     1.091645270729   109.86947220   183.75771362
 H     18  17  16     1.087110313261   110.59976735    65.88646907
 H     20  19  18     1.094161350406   109.58627399   355.88560154
 H     21  20  19     1.090270887043   108.85203208   302.21452557
 H     22  21  20     0.968617694994   112.04282268    35.16614317
 H     23  21  20     1.095068509565   109.12978209   297.32745467
 H     24  23  21     1.086274792874   108.57095671   190.08065854
 H     24  23  21     1.092247970169   109.15117813   307.70029090
 H     25  24  23     0.966080301983   106.91299576   311.38925213
 H     27  26  23     1.096732403454   109.35284091   303.20111324
 H     28  27  26     0.963491836668   107.93426353   196.86825253
 H     29  27  26     1.091689008693   107.90941787    61.04486417
 H     30  29  27     0.961207610173   108.84434697   192.88407006

---------------------------
INTERNAL COORDINATES (A.U.)
---------------------------
 O      0   0   0     0.000000000000     0.00000000     0.00000000
 C      1   0   0     2.281935666318     0.00000000     0.00000000
 C      2   1   0     2.835588465060   127.48711576     0.00000000
 H      3   2   1     2.053961229243   108.30638909   301.40708962
 C      3   2   1     2.885706499022   104.85231997   181.24203183
 C      5   3   2     2.931667048044   106.99407128   238.16904011
 C      6   5   3     2.826964456633   113.88670923    96.05523012
 C      7   6   5     2.498005680168   124.15938064   121.13611150
 C      6   5   3     2.894155608602   101.70601863   335.97818032
 C      9   6   5     2.874938004330   104.60505255    40.29509899
 C     10   9   6     2.821795152784   116.96557827   194.57355705
 C     11  10   9     2.500311487401   125.61254759   353.32520560
 H      5   3   2     2.052104052159   112.21647886   117.94326539
 N      2   1   3     2.611835486506   123.74065000   180.04873336
 C     14   2   1     2.753605305180   123.23213560     2.64534660
 C     15  14   2     2.870579126658   114.64653321   294.59442179
 C     16  15  14     2.871224235883   115.68423416   312.88044482
 C     17  16  15     2.845079282873   115.29494213   312.27945431
 O     18  17  16     2.685529435139   110.71462687   305.38209243
 C     19  18  17     2.665224292377   113.60844519   168.86063109
 C     20  19  18     2.862328947426   111.29917847   236.00060828
 O     21  20  19     2.671100703706   113.12713743    60.10209804
 C     21  20  19     2.883326787722   109.42677361   184.34998737
 C     23  21  20     2.861733893169   112.64740077   176.30828875
 O     24  23  21     2.667087338591   112.08115079    71.33750964
 O     23  21  20     2.677887791898   109.43384212    57.60111848
 C     26  23  21     2.642345076449   112.45607538   296.73224364
 O     27  26  23     2.629177216552   105.77372936   184.15076929
 C     27  26  23     2.860270561669   109.76585974    63.31937502
 O     29  27  26     2.665303762895   107.19204446   180.07218918
 C     14   2   1     2.602497020713   112.53473510   176.22718041
 O     31  14   2     2.290328463838   124.53353941   184.76306097
 H      6   5   3     2.052376317285   109.88736888   217.94112212
 H      7   6   5     2.049386997958   116.83866034   300.48444003
 H      8   7   6     2.041824490807   121.27392626   179.49387167
 H      8   7   6     2.045456905443   121.13242530   359.10757171
 H      9   6   5     2.059332850177   109.11830242   283.32811300
 H      9   6   5     2.053626339854   112.40827574   163.32168840
 H     10   9   6     2.064111885307   108.68516376    73.01168489
 H     11  10   9     2.047790590911   115.18404311   173.85380331
 H     12  11  10     2.041594322016   120.85042603   180.37083227
 H     12  11  10     2.043241766564   121.89592111     0.18274764
 H     15  14   2     2.045373517563   106.08541552   172.41684996
 H     15  14   2     2.054376155836   107.80904987    57.14633392
 H     16  15  14     2.053202434913   109.77105337    76.11665933
 H     16  15  14     2.056728692798   105.96044137   191.05441355
 H     17  16  15     2.061163586202   109.94656290    72.82764375
 H     17  16  15     2.058305229206   108.60663470   188.77837950
 H     18  17  16     2.062910597069   109.86947220   183.75771362
 H     18  17  16     2.054340769424   110.59976735    65.88646907
 H     20  19  18     2.067665298589   109.58627399   355.88560154
 H     21  20  19     2.060313388299   108.85203208   302.21452557
 H     22  21  20     1.830422172010   112.04282268    35.16614317
 H     23  21  20     2.069379580959   109.12978209   297.32745467
 H     24  23  21     2.052761864714   108.57095671   190.08065854
 H     24  23  21     2.064049533950   109.15117813   307.70029090
 H     25  24  23     1.825627194125   106.91299576   311.38925213
 H     27  26  23     2.072523884724   109.35284091   303.20111324
 H     28  27  26     1.820735703571   107.93426353   196.86825253
 H     29  27  26     2.062993249841   107.90941787    61.04486417
 H     30  29  27     1.816419141068   108.84434697   192.88407006

---------------------
BASIS SET INFORMATION
---------------------
There are 4 groups of distinct atoms

 Group   1 Type O   : 10s4p1d contracted to 3s2p1d pattern {631/31/1}
 Group   2 Type C   : 10s4p1d contracted to 3s2p1d pattern {631/31/1}
 Group   3 Type H   : 4s contracted to 2s pattern {31}
 Group   4 Type N   : 10s4p1d contracted to 3s2p1d pattern {631/31/1}

Atom   0O    basis set group =>   1
Atom   1C    basis set group =>   2
Atom   2C    basis set group =>   2
Atom   3H    basis set group =>   3
Atom   4C    basis set group =>   2
Atom   5C    basis set group =>   2
Atom   6C    basis set group =>   2
Atom   7C    basis set group =>   2
Atom   8C    basis set group =>   2
Atom   9C    basis set group =>   2
Atom  10C    basis set group =>   2
Atom  11C    basis set group =>   2
Atom  12H    basis set group =>   3
Atom  13N    basis set group =>   4
Atom  14C    basis set group =>   2
Atom  15C    basis set group =>   2
Atom  16C    basis set group =>   2
Atom  17C    basis set group =>   2
Atom  18O    basis set group =>   1
Atom  19C    basis set group =>   2
Atom  20C    basis set group =>   2
Atom  21O    basis set group =>   1
Atom  22C    basis set group =>   2
Atom  23C    basis set group =>   2
Atom  24O    basis set group =>   1
Atom  25O    basis set group =>   1
Atom  26C    basis set group =>   2
Atom  27O    basis set group =>   1
Atom  28C    basis set group =>   2
Atom  29O    basis set group =>   1
Atom  30C    basis set group =>   2
Atom  31O    basis set group =>   1
Atom  32H    basis set group =>   3
Atom  33H    basis set group =>   3
Atom  34H    basis set group =>   3
Atom  35H    basis set group =>   3
Atom  36H    basis set group =>   3
Atom  37H    basis set group =>   3
Atom  38H    basis set group =>   3
Atom  39H    basis set group =>   3
Atom  40H    basis set group =>   3
Atom  41H    basis set group =>   3
Atom  42H    basis set group =>   3
Atom  43H    basis set group =>   3
Atom  44H    basis set group =>   3
Atom  45H    basis set group =>   3
Atom  46H    basis set group =>   3
Atom  47H    basis set group =>   3
Atom  48H    basis set group =>   3
Atom  49H    basis set group =>   3
Atom  50H    basis set group =>   3
Atom  51H    basis set group =>   3
Atom  52H    basis set group =>   3
Atom  53H    basis set group =>   3
Atom  54H    basis set group =>   3
Atom  55H    basis set group =>   3
Atom  56H    basis set group =>   3
Atom  57H    basis set group =>   3
Atom  58H    basis set group =>   3
Atom  59H    basis set group =>   3
Atom  60H    basis set group =>   3
------------------------------------------------------------------------------
                             ORCA STARTUP CALCULATIONS
------------------------------------------------------------------------------
------------------------------------------------------------------------------
                   ___                                                        
                  /   \      - P O W E R E D   B Y -                         
                 /     \                                                     
                 |  |  |   _    _      __       _____    __    __             
                 |  |  |  | |  | |    /  \     |  _  \  |  |  /  |          
                  \  \/   | |  | |   /    \    | | | |  |  | /  /          
                 / \  \   | |__| |  /  /\  \   | |_| |  |  |/  /          
                |  |  |   |  __  | /  /__\  \  |    /   |      \           
                |  |  |   | |  | | |   __   |  |    \   |  |\   \          
                \     /   | |  | | |  |  |  |  | |\  \  |  | \   \       
                 \___/    |_|  |_| |__|  |__|  |_| \__\ |__|  \__/        
                                                                              
                      - O R C A' S   B I G   F R I E N D -                    
                                      &                                       
                       - I N T E G R A L  F E E D E R -                       
                                                                              
 v1 FN, 2020, v2 2021, v3 2022-2024                                           
------------------------------------------------------------------------------


----------------------
SHARK INTEGRAL PACKAGE
----------------------

Number of atoms                             ...     61
Number of basis functions                   ...    482
Number of shells                            ...    242
Maximum angular momentum                    ...      2
Integral batch strategy                     ... SHARK/LIBINT Hybrid
RI-J (if used) integral strategy            ... SPLIT-RIJ (Revised 2003 algorithm where possible)
Printlevel                                  ...      1
Contraction scheme used                     ... SEGMENTED contraction
Prescreening option                         ... SCHWARTZ
   Thresh                                   ... 2.500e-11
   Tcut                                     ... 2.500e-12
   Tpresel                                  ... 2.500e-12 
Coulomb Range Separation                    ... NOT USED
Exchange Range Separation                   ... NOT USED
Multipole approximations                    ... NOT USED
Finite Nucleus Model                        ... NOT USED
CABS basis                                  ... NOT available
Auxiliary Coulomb fitting basis             ... NOT available
Auxiliary J/K fitting basis                 ... NOT available
Auxiliary Correlation fitting basis         ... NOT available
Auxiliary 'external' fitting basis          ... NOT available

Checking pre-screening integrals            ... done (  0.0 sec) Dimension = 242
Check shell pair data                       ... done (  0.0 sec)
Shell pair information
Shell pair cut-off parameter TPreSel        ...   2.5e-12
Total number of shell pairs                 ...     29403
Shell pairs after pre-screening             ...     19076
Total number of primitive shell pairs       ...    165748
Primitive shell pairs kept                  ...     56694
          la=0 lb=0:   7275 shell pairs
          la=1 lb=0:   6375 shell pairs
          la=1 lb=1:   1412 shell pairs
          la=2 lb=0:   2579 shell pairs
          la=2 lb=1:   1188 shell pairs
          la=2 lb=2:    247 shell pairs

Calculating one electron integrals          ... done (  0.2 sec)
Calculating Nuclear repulsion               ... done (  0.0 sec) ENN=   3291.645635721642 Eh

Diagonalization of the overlap matrix:
Smallest eigenvalue                        ... 1.059e-03
Time for diagonalization                   ...    0.032 sec
Threshold for overlap eigenvalues          ... 1.000e-07
Number of eigenvalues below threshold      ... 0
Time for construction of square roots      ...    0.011 sec
Total time needed                          ...    0.045 sec

-------------------
DFT GRID GENERATION
-------------------

General Integration Accuracy     IntAcc      ... 4.388
Radial Grid Type                 RadialGrid  ... OptM3 with GC (2021)
Angular Grid (max. ang.)         AngularGrid ... 4 (Lebedev-302)
Angular grid pruning method      GridPruning ... 4 (adaptive)
Weight generation scheme         WeightScheme... mBecke (2022)
Basis function cutoff            BFCut       ... 1.0000e-11
Integration weight cutoff        WCut        ... 1.0000e-14
Partially contracted basis set               ... off
Rotationally invariant grid construction     ... off
Angular grids for H and He will be reduced by one unit

Total number of grid points                  ...   275599
Total number of batches                      ...     4332
Average number of points per batch           ...       63
Average number of grid points per atom       ...     4518
Initializing property integral containers    ... done (  0.0 sec)

SHARK setup successfully completed in   4.8 seconds

Maximum memory used throughout the entire STARTUP-calculation: 121.2 MB
-------------------------------------------------------------------------------
                                 ORCA GUESS
                   Start orbitals & Density for SCF / CASSCF
-------------------------------------------------------------------------------

------------
SCF SETTINGS
------------
Hamiltonian:
 Ab initio Hamiltonian  Method          .... Hartree-Fock(GTOs)


General Settings:
 Integral files         IntName         .... monomer_hf_opt
 Hartree-Fock type      HFTyp           .... RHF
 Total Charge           Charge          ....    0
 Multiplicity           Mult            ....    1
 Number of Electrons    NEL             ....  228
 Basis Dimension        Dim             ....  482
 Nuclear Repulsion      ENuc            ....   3291.6456357216 Eh

Convergence Acceleration:
 AO-DIIS                CNVDIIS         .... on
   Start iteration      DIISMaxIt       ....    12
   Startup error        DIISStart       ....  0.200000
   # of expansion vecs  DIISMaxEq       ....     5
   Bias factor          DIISBfac        ....   1.050
   Max. coefficient     DIISMaxC        ....  10.000
 MO-DIIS                CNVKDIIS        .... off
 Trust-Rad. Augm. Hess. CNVTRAH         .... auto
   Auto Start mean grad. ratio tolernc. ....  1.125000
   Auto Start start iteration           ....    50
   Auto Start num. interpolation iter.  ....    10
   Max. Number of Micro iterations      ....    24
   Max. Number of Macro iterations      .... Maxiter - #DIIS iter
   Number of Davidson start vectors     ....     2
   Converg. threshold    (grad. norm)   ....   1.000e-05
   Grad. Scal. Fac. for Micro threshold ....   0.100
   Minimum threshold for Micro iter.    ....   1.000e-02
   NR start threshold (gradient norm)   ....   1.000e-04
   Initial trust radius                 ....   0.400
   Minimum AH scaling param. (alpha)    ....   1.000
   Maximum AH scaling param. (alpha)    .... 1000.000
   Quad. conv. algorithm                .... NR
   White noise on init. David. guess    .... on
   Maximum white noise                  ....   0.010
   Pseudo random numbers                .... off
   Inactive MOs                         .... canonical
   Orbital update algorithm             .... Taylor
   Preconditioner                       .... Diag
   Full preconditioner red. dimension   ....   250
 SOSCF                  CNVSOSCF        .... on
   Start iteration      SOSCFMaxIt      ....   150
   Startup grad/error   SOSCFStart      ....  0.003300
   Hessian update       SOSCFHessUp     .... L-BFGS
 Level Shifting         CNVShift        .... on
   Level shift para.    LevelShift      ....    0.2500
   Turn off err/grad.   ShiftErr        ....    0.0010
 Zerner damping         CNVZerner       .... off
 Static damping         CNVDamp         .... on
   Fraction old density DampFac         ....    0.7000
   Max. Damping (<1)    DampMax         ....    0.9800
   Min. Damping (>=0)   DampMin         ....    0.0000
   Turn off err/grad.   DampErr         ....    0.1000

SCF Procedure:
 Maximum # iterations   MaxIter         ....   125
 SCF integral mode      SCFMode         .... Direct
   Integral package                     .... SHARK and LIBINT hybrid scheme
 Reset frequency        DirectResetFreq ....    20
 Integral Threshold     Thresh          ....  2.500e-11 Eh
 Primitive CutOff       TCut            ....  2.500e-12 Eh

Convergence Tolerance:
 Convergence Check Mode ConvCheckMode   .... Total+1el-Energy
 Convergence forced     ConvForced      .... 0
 Energy Change          TolE            ....  1.000e-08 Eh
 1-El. energy change                    ....  1.000e-05 Eh
 Orbital Gradient       TolG            ....  1.000e-05
 Orbital Rotation angle TolX            ....  1.000e-05
 DIIS Error             TolErr          ....  5.000e-07

------------------------------
INITIAL GUESS: MODEL POTENTIAL
------------------------------
Loading Hartree-Fock densities                     ... done
Calculating cut-offs                               ... done
Initializing the effective Hamiltonian             ... done
Setting up the integral package (SHARK)            ... done
Starting the Coulomb interaction                   ... done (   2.2 sec)
Making the grid                                    ... done (   1.3 sec)
Mapping shells                                     ... done
Starting the XC term evaluation                    ... done (   0.5 sec)
Transforming the Hamiltonian                       ... done (   0.0 sec)
Diagonalizing the Hamiltonian                      ... done (   0.0 sec)
Back transforming the eigenvectors                 ... done (   0.0 sec)
Now organizing SCF variables                       ... done
                      ------------------
                      INITIAL GUESS DONE (   4.0 sec)
                      ------------------
             **** ENERGY FILE WAS UPDATED (monomer_hf_opt.en.tmp) ****
Finished Guess after   4.1 sec
Maximum memory used throughout the entire GUESS-calculation: 66.0 MB

-------------------------------------------------------------------------------------------
                                      ORCA LEAN-SCF
                              memory conserving SCF solver
-------------------------------------------------------------------------------------------

----------------------------------------D-I-I-S--------------------------------------------
Iteration    Energy (Eh)           Delta-E    RMSDP     MaxDP     DIISErr   Damp  Time(sec)
-------------------------------------------------------------------------------------------
               ***  Starting incremental Fock matrix formation  ***
    1    -1465.5458152762976169     0.00e+00  1.69e-03  6.30e-02  2.51e-01  0.700  55.4
    2    -1465.9028633051611905    -3.57e-01  1.29e-03  4.52e-02  1.55e-01  0.700  49.7
                               ***Turning on AO-DIIS***
    3    -1466.1196480788885310    -2.17e-01  8.04e-04  2.91e-02  8.89e-02  0.700  49.0
    4    -1466.2591765433680848    -1.40e-01  1.95e-03  7.38e-02  6.57e-02  0.000  48.1
    5    -1466.5757541129805759    -3.17e-01  2.04e-04  8.77e-03  9.39e-03  0.000  49.9
    6    -1466.5770484252279857    -1.29e-03  8.52e-05  3.88e-03  3.69e-03  0.000  44.4
                              *** Initializing SOSCF ***
---------------------------------------S-O-S-C-F--------------------------------------
Iteration    Energy (Eh)           Delta-E    RMSDP     MaxDP     MaxGrad    Time(sec)
--------------------------------------------------------------------------------------
    7    -1466.5772791983117713    -2.31e-04  4.66e-05  2.38e-03  2.29e-03    41.6
               *** Restarting incremental Fock matrix formation ***
    8    -1466.5773418135158863    -6.26e-05  2.30e-05  1.06e-03  6.84e-04    54.8
    9    -1466.5773548105162263    -1.30e-05  2.21e-05  1.52e-03  3.79e-04    36.7
   10    -1466.5773586537134179    -3.84e-06  4.85e-06  2.23e-04  9.46e-05    36.3
   11    -1466.5773591557826876    -5.02e-07  1.56e-06  6.50e-05  3.81e-05    32.0
   12    -1466.5773592070308950    -5.12e-08  5.42e-07  3.52e-05  5.53e-06    28.7
   13    -1466.5773592173936777    -1.04e-08  2.62e-07  1.77e-05  2.13e-06    25.0
                  *** Gradient check signals convergence ***

               *****************************************************
               *                     SUCCESS                       *
               *           SCF CONVERGED AFTER  13 CYCLES          *
               *****************************************************

             **** ENERGY FILE WAS UPDATED (monomer_hf_opt.en.tmp) ****

----------------
TOTAL SCF ENERGY
----------------

Total Energy       :      -1466.57735921739368 Eh          -39907.59881 eV

Components:
Nuclear Repulsion  :       3291.64563572164207 Eh           89570.23141 eV
Electronic Energy  :      -4758.22299493903574 Eh         -129477.83022 eV
One Electron Energy:      -8557.68770066613070 Eh         -232866.52104 eV
Two Electron Energy:       3799.46470572709495 Eh          103388.69082 eV

Virial components:
Potential Energy   :      -2933.03264895740131 Eh          -79811.87594 eV
Kinetic Energy     :       1466.45528974000763 Eh           39904.27713 eV
Virial Ratio       :          2.00008324118590

---------------
SCF CONVERGENCE
---------------

  Last Energy change         ...    1.0363e-08  Tolerance :   1.0000e-08
  Last MAX-Density change    ...    1.7658e-05  Tolerance :   1.0000e-07
  Last RMS-Density change    ...    2.6213e-07  Tolerance :   5.0000e-09
  Last DIIS Error            ...    2.2884e-03  Tolerance :   5.0000e-07
  Last Orbital Gradient      ...    2.1293e-06  Tolerance :   1.0000e-05
  Last Orbital Rotation      ...    1.0168e-05  Tolerance :   1.0000e-05


----------------
ORBITAL ENERGIES
----------------

  NO   OCC          E(Eh)            E(eV) 
   0   2.0000     -20.582542      -560.0794 
   1   2.0000     -20.575076      -559.8763 
   2   2.0000     -20.572465      -559.8052 
   3   2.0000     -20.569368      -559.7210 
   4   2.0000     -20.568189      -559.6889 
   5   2.0000     -20.565382      -559.6125 
   6   2.0000     -20.559622      -559.4558 
   7   2.0000     -20.529123      -558.6259 
   8   2.0000     -15.633824      -425.4180 
   9   2.0000     -11.391249      -309.9717 
  10   2.0000     -11.381917      -309.7177 
  11   2.0000     -11.334288      -308.4216 
  12   2.0000     -11.289115      -307.1924 
  13   2.0000     -11.285045      -307.0817 
  14   2.0000     -11.283357      -307.0358 
  15   2.0000     -11.283187      -307.0311 
  16   2.0000     -11.277116      -306.8659 
  17   2.0000     -11.269458      -306.6576 
  18   2.0000     -11.268846      -306.6409 
  19   2.0000     -11.265039      -306.5373 
  20   2.0000     -11.264363      -306.5189 
  21   2.0000     -11.261756      -306.4480 
  22   2.0000     -11.256321      -306.3001 
  23   2.0000     -11.252158      -306.1868 
  24   2.0000     -11.245203      -305.9975 
  25   2.0000     -11.244400      -305.9757 
  26   2.0000     -11.242022      -305.9110 
  27   2.0000     -11.232786      -305.6596 
  28   2.0000     -11.232767      -305.6591 
  29   2.0000     -11.225395      -305.4585 
  30   2.0000      -1.440254       -39.1913 
  31   2.0000      -1.430509       -38.9261 
  32   2.0000      -1.414771       -38.4979 
  33   2.0000      -1.402310       -38.1588 
  34   2.0000      -1.384522       -37.6748 
  35   2.0000      -1.369372       -37.2625 
  36   2.0000      -1.345848       -36.6224 
  37   2.0000      -1.333043       -36.2739 
  38   2.0000      -1.298065       -35.3222 
  39   2.0000      -1.194439       -32.5023 
  40   2.0000      -1.108916       -30.1751 
  41   2.0000      -1.098985       -29.9049 
  42   2.0000      -1.082074       -29.4447 
  43   2.0000      -1.059925       -28.8420 
  44   2.0000      -1.037478       -28.2312 
  45   2.0000      -1.026153       -27.9230 
  46   2.0000      -0.998583       -27.1728 
  47   2.0000      -0.987676       -26.8760 
  48   2.0000      -0.929699       -25.2984 
  49   2.0000      -0.913849       -24.8671 
  50   2.0000      -0.904615       -24.6158 
  51   2.0000      -0.871151       -23.7052 
  52   2.0000      -0.860436       -23.4137 
  53   2.0000      -0.840448       -22.8697 
  54   2.0000      -0.837745       -22.7962 
  55   2.0000      -0.825677       -22.4678 
  56   2.0000      -0.812995       -22.1227 
  57   2.0000      -0.789108       -21.4727 
  58   2.0000      -0.766959       -20.8700 
  59   2.0000      -0.746738       -20.3198 
  60   2.0000      -0.743731       -20.2380 
  61   2.0000      -0.731631       -19.9087 
  62   2.0000      -0.713258       -19.4087 
  63   2.0000      -0.704858       -19.1802 
  64   2.0000      -0.700598       -19.0642 
  65   2.0000      -0.691538       -18.8177 
  66   2.0000      -0.689493       -18.7621 
  67   2.0000      -0.678285       -18.4571 
  68   2.0000      -0.672676       -18.3045 
  69   2.0000      -0.668908       -18.2019 
  70   2.0000      -0.660810       -17.9815 
  71   2.0000      -0.657931       -17.9032 
  72   2.0000      -0.644396       -17.5349 
  73   2.0000      -0.642491       -17.4831 
  74   2.0000      -0.634420       -17.2635 
  75   2.0000      -0.628489       -17.1021 
  76   2.0000      -0.622427       -16.9371 
  77   2.0000      -0.620460       -16.8836 
  78   2.0000      -0.608549       -16.5595 
  79   2.0000      -0.603839       -16.4313 
  80   2.0000      -0.597450       -16.2575 
  81   2.0000      -0.587945       -15.9988 
  82   2.0000      -0.584277       -15.8990 
  83   2.0000      -0.580253       -15.7895 
  84   2.0000      -0.571744       -15.5580 
  85   2.0000      -0.569281       -15.4909 
  86   2.0000      -0.564921       -15.3723 
  87   2.0000      -0.558707       -15.2032 
  88   2.0000      -0.551508       -15.0073 
  89   2.0000      -0.546085       -14.8597 
  90   2.0000      -0.541544       -14.7362 
  91   2.0000      -0.534374       -14.5411 
  92   2.0000      -0.531092       -14.4518 
  93   2.0000      -0.518052       -14.0969 
  94   2.0000      -0.510590       -13.8939 
  95   2.0000      -0.508622       -13.8403 
  96   2.0000      -0.504636       -13.7318 
  97   2.0000      -0.501950       -13.6588 
  98   2.0000      -0.498638       -13.5686 
  99   2.0000      -0.491216       -13.3667 
 100   2.0000      -0.489094       -13.3089 
 101   2.0000      -0.486792       -13.2463 
 102   2.0000      -0.478578       -13.0228 
 103   2.0000      -0.473026       -12.8717 
 104   2.0000      -0.467853       -12.7309 
 105   2.0000      -0.453856       -12.3501 
 106   2.0000      -0.447634       -12.1807 
 107   2.0000      -0.436665       -11.8823 
 108   2.0000      -0.424432       -11.5494 
 109   2.0000      -0.421018       -11.4565 
 110   2.0000      -0.410371       -11.1668 
 111   2.0000      -0.405365       -11.0305 
 112   2.0000      -0.381692       -10.3864 
 113   2.0000      -0.377373       -10.2688 
 114   0.0000       0.127046         3.4571 
 115   0.0000       0.155877         4.2416 
 116   0.0000       0.162674         4.4266 
 117   0.0000       0.168626         4.5885 
 118   0.0000       0.186254         5.0682 
 119   0.0000       0.201542         5.4842 
 120   0.0000       0.217269         5.9122 
 121   0.0000       0.226842         6.1727 
 122   0.0000       0.233728         6.3601 
 123   0.0000       0.246485         6.7072 
 124   0.0000       0.251604         6.8465 
*Only the first 10 virtual orbitals were printed.

                    ********************************
                    * MULLIKEN POPULATION ANALYSIS *
                    ********************************

-----------------------
MULLIKEN ATOMIC CHARGES
-----------------------
   0 O :   -0.596441
   1 C :    0.831049
   2 C :   -0.309817
   3 H :    0.244256
   4 C :   -0.302909
   5 C :   -0.210759
   6 C :   -0.143342
   7 C :   -0.393850
   8 C :   -0.328442
   9 C :   -0.214809
  10 C :   -0.121074
  11 C :   -0.415362
  12 H :    0.244146
  13 N :   -0.774913
  14 C :   -0.162815
  15 C :   -0.334109
  16 C :   -0.354242
  17 C :    0.001983
  18 O :   -0.709204
  19 C :    0.120570
  20 C :    0.205027
  21 O :   -0.864004
  22 C :    0.110376
  23 C :    0.038891
  24 O :   -0.817003
  25 O :   -0.692369
  26 C :    0.583888
  27 O :   -0.799458
  28 C :    0.122703
  29 O :   -0.821134
  30 C :    0.858173
  31 O :   -0.649784
  32 H :    0.208351
  33 H :    0.190818
  34 H :    0.191082
  35 H :    0.189810
  36 H :    0.183839
  37 H :    0.199624
  38 H :    0.198854
  39 H :    0.218628
  40 H :    0.190701
  41 H :    0.181757
  42 H :    0.259398
  43 H :    0.208022
  44 H :    0.204961
  45 H :    0.194800
  46 H :    0.159946
  47 H :    0.181005
  48 H :    0.150334
  49 H :    0.177224
  50 H :    0.171085
  51 H :    0.193106
  52 H :    0.523516
  53 H :    0.167338
  54 H :    0.189517
  55 H :    0.150437
  56 H :    0.493834
  57 H :    0.145736
  58 H :    0.468591
  59 H :    0.191815
  60 H :    0.470650
Sum of atomic charges:   -0.0000000

--------------------------------
MULLIKEN REDUCED ORBITAL CHARGES
--------------------------------
  0 O s       :     3.894694  s :     3.894694
      pz      :     1.458102  p :     4.668897
      px      :     1.825098
      py      :     1.385696
      dz2     :     0.003174  d :     0.032850
      dxz     :     0.000805
      dyz     :     0.012449
      dx2y2   :     0.008960
      dxy     :     0.007462

  1 C s       :     2.928322  s :     2.928322
      pz      :     0.645995  p :     2.108415
      px      :     0.713399
      py      :     0.749021
      dz2     :     0.008343  d :     0.132214
      dxz     :     0.013207
      dyz     :     0.024245
      dx2y2   :     0.036465
      dxy     :     0.049955

  2 C s       :     3.255051  s :     3.255051
      pz      :     1.098128  p :     3.000587
      px      :     0.996436
      py      :     0.906023
      dz2     :     0.012866  d :     0.054180
      dxz     :     0.013943
      dyz     :     0.004379
      dx2y2   :     0.005699
      dxy     :     0.017293

  3 H s       :     0.755744  s :     0.755744

  4 C s       :     3.247821  s :     3.247821
      pz      :     1.085892  p :     3.001345
      px      :     0.901098
      py      :     1.014355
      dz2     :     0.011648  d :     0.053744
      dxz     :     0.004798
      dyz     :     0.014030
      dx2y2   :     0.011308
      dxy     :     0.011960

  5 C s       :     3.248904  s :     3.248904
      pz      :     0.888758  p :     2.904380
      px      :     0.922906
      py      :     1.092716
      dz2     :     0.014289  d :     0.057475
      dxz     :     0.011850
      dyz     :     0.007958
      dx2y2   :     0.016575
      dxy     :     0.006804

  6 C s       :     3.167365  s :     3.167365
      pz      :     0.942680  p :     2.927699
      px      :     0.945147
      py      :     1.039872
      dz2     :     0.010616  d :     0.048278
      dxz     :     0.007689
      dyz     :     0.009657
      dx2y2   :     0.013987
      dxy     :     0.006329

  7 C s       :     3.271843  s :     3.271843
      pz      :     1.029546  p :     3.079500
      px      :     1.004073
      py      :     1.045881
      dz2     :     0.008136  d :     0.042507
      dxz     :     0.007767
      dyz     :     0.008786
      dx2y2   :     0.011778
      dxy     :     0.006040

  8 C s       :     3.275365  s :     3.275365
      pz      :     1.120459  p :     3.000031
      px      :     0.951443
      py      :     0.928129
      dz2     :     0.012198  d :     0.053046
      dxz     :     0.011344
      dyz     :     0.008316
      dx2y2   :     0.011924
      dxy     :     0.009265

  9 C s       :     3.238117  s :     3.238117
      pz      :     0.951586  p :     2.918150
      px      :     0.990544
      py      :     0.976020
      dz2     :     0.008612  d :     0.058541
      dxz     :     0.015171
      dyz     :     0.011255
      dx2y2   :     0.011708
      dxy     :     0.011795

 10 C s       :     3.172844  s :     3.172844
      pz      :     0.971024  p :     2.899960
      px      :     0.894215
      py      :     1.034722
      dz2     :     0.003699  d :     0.048270
      dxz     :     0.010080
      dyz     :     0.005403
      dx2y2   :     0.016476
      dxy     :     0.012612

 11 C s       :     3.267649  s :     3.267649
      pz      :     1.023839  p :     3.105520
      px      :     1.021679
      py      :     1.060002
      dz2     :     0.003832  d :     0.042194
      dxz     :     0.007570
      dyz     :     0.004821
      dx2y2   :     0.013126
      dxy     :     0.012847

 12 H s       :     0.755854  s :     0.755854

 13 N s       :     3.612130  s :     3.612130
      pz      :     1.666827  p :     4.119230
      px      :     1.231705
      py      :     1.220698
      dz2     :     0.003713  d :     0.043553
      dxz     :     0.005186
      dyz     :     0.004770
      dx2y2   :     0.017954
      dxy     :     0.011930

 14 C s       :     3.239904  s :     3.239904
      pz      :     1.049001  p :     2.856447
      px      :     0.836840
      py      :     0.970606
      dz2     :     0.016658  d :     0.066464
      dxz     :     0.005007
      dyz     :     0.015355
      dx2y2   :     0.006036
      dxy     :     0.023410

 15 C s       :     3.273520  s :     3.273520
      pz      :     0.887219  p :     3.007735
      px      :     1.110264
      py      :     1.010252
      dz2     :     0.014854  d :     0.052854
      dxz     :     0.003962
      dyz     :     0.012687
      dx2y2   :     0.007561
      dxy     :     0.013789

 16 C s       :     3.280497  s :     3.280497
      pz      :     0.994718  p :     3.020520
      px      :     1.033112
      py      :     0.992690
      dz2     :     0.012178  d :     0.053225
      dxz     :     0.005260
      dyz     :     0.014708
      dx2y2   :     0.012506
      dxy     :     0.008572

 17 C s       :     3.195696  s :     3.195696
      pz      :     1.056037  p :     2.721270
      px      :     0.640957
      py      :     1.024276
      dz2     :     0.018821  d :     0.081051
      dxz     :     0.014066
      dyz     :     0.011225
      dx2y2   :     0.021198
      dxy     :     0.015742

 18 O s       :     3.900322  s :     3.900322
      pz      :     1.887808  p :     4.778824
      px      :     1.351935
      py      :     1.539081
      dz2     :     0.004388  d :     0.030059
      dxz     :     0.003912
      dyz     :     0.002806
      dx2y2   :     0.010960
      dxy     :     0.007992

 19 C s       :     3.142666  s :     3.142666
      pz      :     0.955736  p :     2.652857
      px      :     0.933696
      py      :     0.763426
      dz2     :     0.014937  d :     0.083908
      dxz     :     0.019122
      dyz     :     0.011288
      dx2y2   :     0.011872
      dxy     :     0.026687

 20 C s       :     3.119541  s :     3.119541
      pz      :     0.737934  p :     2.592061
      px      :     0.865017
      py      :     0.989110
      dz2     :     0.020290  d :     0.083371
      dxz     :     0.023613
      dyz     :     0.009989
      dx2y2   :     0.007203
      dxy     :     0.022274

 21 O s       :     3.909774  s :     3.909774
      pz      :     1.605825  p :     4.925080
      px      :     1.464112
      py      :     1.855142
      dz2     :     0.007824  d :     0.029151
      dxz     :     0.009175
      dyz     :     0.003244
      dx2y2   :     0.002646
      dxy     :     0.006262

 22 C s       :     3.148019  s :     3.148019
      pz      :     0.795015  p :     2.658700
      px      :     0.883805
      py      :     0.979881
      dz2     :     0.018002  d :     0.082906
      dxz     :     0.023226
      dyz     :     0.009882
      dx2y2   :     0.007090
      dxy     :     0.024705

 23 C s       :     3.186099  s :     3.186099
      pz      :     0.742982  p :     2.694657
      px      :     0.891121
      py      :     1.060555
      dz2     :     0.019581  d :     0.080353
      dxz     :     0.021688
      dyz     :     0.010844
      dx2y2   :     0.005003
      dxy     :     0.023238

 24 O s       :     3.890288  s :     3.890288
      pz      :     1.636177  p :     4.895813
      px      :     1.530027
      py      :     1.729609
      dz2     :     0.007654  d :     0.030901
      dxz     :     0.004098
      dyz     :     0.005300
      dx2y2   :     0.001244
      dxy     :     0.012605

 25 O s       :     3.902654  s :     3.902654
      pz      :     1.274025  p :     4.757910
      px      :     1.592434
      py      :     1.891451
      dz2     :     0.004097  d :     0.031805
      dxz     :     0.015869
      dyz     :     0.003086
      dx2y2   :     0.005028
      dxy     :     0.003725

 26 C s       :     3.004228  s :     3.004228
      pz      :     0.596314  p :     2.294557
      px      :     0.765949
      py      :     0.932295
      dz2     :     0.028581  d :     0.117327
      dxz     :     0.032412
      dyz     :     0.014438
      dx2y2   :     0.010749
      dxy     :     0.031147

 27 O s       :     3.905467  s :     3.905467
      pz      :     1.369778  p :     4.862712
      px      :     1.612240
      py      :     1.880694
      dz2     :     0.002319  d :     0.031280
      dxz     :     0.014659
      dyz     :     0.004282
      dx2y2   :     0.005346
      dxy     :     0.004673

 28 C s       :     3.137459  s :     3.137459
      pz      :     0.696480  p :     2.656989
      px      :     0.920958
      py      :     1.039551
      dz2     :     0.025038  d :     0.082849
      dxz     :     0.023826
      dyz     :     0.007396
      dx2y2   :     0.006851
      dxy     :     0.019737

 29 O s       :     3.901705  s :     3.901705
      pz      :     1.554047  p :     4.889229
      px      :     1.775476
      py      :     1.559705
      dz2     :     0.010662  d :     0.030200
      dxz     :     0.005184
      dyz     :     0.002324
      dx2y2   :     0.006962
      dxy     :     0.005069

 30 C s       :     2.928622  s :     2.928622
      pz      :     0.617271  p :     2.080525
      px      :     0.797046
      py      :     0.666208
      dz2     :     0.007604  d :     0.132681
      dxz     :     0.017513
      dyz     :     0.021032
      dx2y2   :     0.055745
      dxy     :     0.030786

 31 O s       :     3.901024  s :     3.901024
      pz      :     1.508478  p :     4.718435
      px      :     1.499016
      py      :     1.710941
      dz2     :     0.002577  d :     0.030324
      dxz     :     0.008064
      dyz     :     0.004056
      dx2y2   :     0.006554
      dxy     :     0.009074

 32 H s       :     0.791649  s :     0.791649

 33 H s       :     0.809182  s :     0.809182

 34 H s       :     0.808918  s :     0.808918

 35 H s       :     0.810190  s :     0.810190

 36 H s       :     0.816161  s :     0.816161

 37 H s       :     0.800376  s :     0.800376

 38 H s       :     0.801146  s :     0.801146

 39 H s       :     0.781372  s :     0.781372

 40 H s       :     0.809299  s :     0.809299

 41 H s       :     0.818243  s :     0.818243

 42 H s       :     0.740602  s :     0.740602

 43 H s       :     0.791978  s :     0.791978

 44 H s       :     0.795039  s :     0.795039

 45 H s       :     0.805200  s :     0.805200

 46 H s       :     0.840054  s :     0.840054

 47 H s       :     0.818995  s :     0.818995

 48 H s       :     0.849666  s :     0.849666

 49 H s       :     0.822776  s :     0.822776

 50 H s       :     0.828915  s :     0.828915

 51 H s       :     0.806894  s :     0.806894

 52 H s       :     0.476484  s :     0.476484

 53 H s       :     0.832662  s :     0.832662

 54 H s       :     0.810483  s :     0.810483

 55 H s       :     0.849563  s :     0.849563

 56 H s       :     0.506166  s :     0.506166

 57 H s       :     0.854264  s :     0.854264

 58 H s       :     0.531409  s :     0.531409

 59 H s       :     0.808185  s :     0.808185

 60 H s       :     0.529350  s :     0.529350



                     *******************************
                     * LOEWDIN POPULATION ANALYSIS *
                     *******************************

----------------------
LOEWDIN ATOMIC CHARGES
----------------------
   0 O :   -0.302299
   1 C :    0.212890
   2 C :   -0.138734
   3 H :    0.158807
   4 C :   -0.137099
   5 C :   -0.106583
   6 C :   -0.144590
   7 C :   -0.261376
   8 C :   -0.219044
   9 C :   -0.112469
  10 C :   -0.130156
  11 C :   -0.281601
  12 H :    0.160163
  13 N :   -0.111270
  14 C :   -0.141054
  15 C :   -0.236471
  16 C :   -0.237984
  17 C :   -0.076931
  18 O :   -0.304984
  19 C :   -0.008592
  20 C :   -0.002409
  21 O :   -0.454814
  22 C :   -0.009626
  23 C :   -0.066113
  24 O :   -0.480167
  25 O :   -0.268471
  26 C :    0.129619
  27 O :   -0.426945
  28 C :   -0.022342
  29 O :   -0.457376
  30 C :    0.225047
  31 O :   -0.325746
  32 H :    0.137895
  33 H :    0.127481
  34 H :    0.138695
  35 H :    0.137455
  36 H :    0.128628
  37 H :    0.135345
  38 H :    0.131965
  39 H :    0.146261
  40 H :    0.139137
  41 H :    0.131924
  42 H :    0.160287
  43 H :    0.141200
  44 H :    0.139049
  45 H :    0.138662
  46 H :    0.118855
  47 H :    0.130280
  48 H :    0.104851
  49 H :    0.115390
  50 H :    0.118002
  51 H :    0.130668
  52 H :    0.339245
  53 H :    0.111972
  54 H :    0.131897
  55 H :    0.107780
  56 H :    0.331965
  57 H :    0.096347
  58 H :    0.340618
  59 H :    0.126599
  60 H :    0.340267

-------------------------------
LOEWDIN REDUCED ORBITAL CHARGES
-------------------------------
  0 O s       :     3.545717  s :     3.545717
      pz      :     1.439409  p :     4.699196
      px      :     1.788191
      py      :     1.471596
      dz2     :     0.006821  d :     0.057386
      dxz     :     0.001138
      dyz     :     0.014675
      dx2y2   :     0.020191
      dxy     :     0.014561

  1 C s       :     2.834341  s :     2.834341
      pz      :     0.696323  p :     2.661918
      px      :     0.942423
      py      :     1.023172
      dz2     :     0.017657  d :     0.290851
      dxz     :     0.027959
      dyz     :     0.047660
      dx2y2   :     0.082110
      dxy     :     0.115464

  2 C s       :     2.895489  s :     2.895489
      pz      :     1.090202  p :     3.137193
      px      :     1.040104
      py      :     1.006886
      dz2     :     0.023265  d :     0.106053
      dxz     :     0.026076
      dyz     :     0.008952
      dx2y2   :     0.012407
      dxy     :     0.035352

  3 H s       :     0.841193  s :     0.841193

  4 C s       :     2.895622  s :     2.895622
      pz      :     1.082036  p :     3.136359
      px      :     1.001522
      py      :     1.052801
      dz2     :     0.021374  d :     0.105117
      dxz     :     0.009958
      dyz     :     0.025439
      dx2y2   :     0.023109
      dxy     :     0.025237

  5 C s       :     2.886519  s :     2.886519
      pz      :     0.999923  p :     3.106840
      px      :     1.024148
      py      :     1.082770
      dz2     :     0.029419  d :     0.113225
      dxz     :     0.024398
      dyz     :     0.015937
      dx2y2   :     0.030306
      dxy     :     0.013164

  6 C s       :     2.924447  s :     2.924447
      pz      :     1.023268  p :     3.124282
      px      :     1.001372
      py      :     1.099642
      dz2     :     0.021052  d :     0.095861
      dxz     :     0.016226
      dyz     :     0.019584
      dx2y2   :     0.025615
      dxy     :     0.013385

  7 C s       :     2.975774  s :     2.975774
      pz      :     1.063639  p :     3.208644
      px      :     1.037192
      py      :     1.107813
      dz2     :     0.014432  d :     0.076959
      dxz     :     0.013590
      dyz     :     0.016338
      dx2y2   :     0.020682
      dxy     :     0.011917

  8 C s       :     2.930741  s :     2.930741
      pz      :     1.111415  p :     3.191378
      px      :     1.041612
      py      :     1.038352
      dz2     :     0.020021  d :     0.096925
      dxz     :     0.018945
      dyz     :     0.014954
      dx2y2   :     0.024060
      dxy     :     0.018944

  9 C s       :     2.882830  s :     2.882830
      pz      :     1.027571  p :     3.114534
      px      :     1.037312
      py      :     1.049651
      dz2     :     0.017269  d :     0.115105
      dxz     :     0.029603
      dyz     :     0.021371
      dx2y2   :     0.023999
      dxy     :     0.022863

 10 C s       :     2.922929  s :     2.922929
      pz      :     0.972471  p :     3.111005
      px      :     1.067912
      py      :     1.070622
      dz2     :     0.006451  d :     0.096222
      dxz     :     0.019268
      dyz     :     0.008223
      dx2y2   :     0.034639
      dxy     :     0.027642

 11 C s       :     2.973124  s :     2.973124
      pz      :     1.032966  p :     3.232203
      px      :     1.106809
      py      :     1.092428
      dz2     :     0.005853  d :     0.076275
      dxz     :     0.012277
      dyz     :     0.007066
      dx2y2   :     0.026296
      dxy     :     0.024782

 12 H s       :     0.839837  s :     0.839837

 13 N s       :     3.085008  s :     3.085008
      pz      :     1.549568  p :     3.926411
      px      :     1.192811
      py      :     1.184031
      dz2     :     0.007572  d :     0.099851
      dxz     :     0.010352
      dyz     :     0.009292
      dx2y2   :     0.043076
      dxy     :     0.029561

 14 C s       :     2.911369  s :     2.911369
      pz      :     1.100807  p :     3.101988
      px      :     0.957246
      py      :     1.043935
      dz2     :     0.028741  d :     0.127697
      dxz     :     0.011608
      dyz     :     0.028416
      dx2y2   :     0.013633
      dxy     :     0.045299

 15 C s       :     2.924051  s :     2.924051
      pz      :     1.019912  p :     3.215726
      px      :     1.119983
      py      :     1.075831
      dz2     :     0.028921  d :     0.096694
      dxz     :     0.008059
      dyz     :     0.025357
      dx2y2   :     0.012367
      dxy     :     0.021991

 16 C s       :     2.922859  s :     2.922859
      pz      :     1.068282  p :     3.217602
      px      :     1.079788
      py      :     1.069532
      dz2     :     0.022628  d :     0.097524
      dxz     :     0.009988
      dyz     :     0.027615
      dx2y2   :     0.021877
      dxy     :     0.015415

 17 C s       :     2.917419  s :     2.917419
      pz      :     1.095032  p :     3.001086
      px      :     0.810985
      py      :     1.095069
      dz2     :     0.033326  d :     0.158425
      dxz     :     0.029613
      dyz     :     0.018492
      dx2y2   :     0.043256
      dxy     :     0.033738

 18 O s       :     3.478488  s :     3.478488
      pz      :     1.855690  p :     4.764394
      px      :     1.351583
      py      :     1.557122
      dz2     :     0.007513  d :     0.062101
      dxz     :     0.009593
      dyz     :     0.005806
      dx2y2   :     0.021228
      dxy     :     0.017962

 19 C s       :     2.882208  s :     2.882208
      pz      :     1.046131  p :     2.952489
      px      :     1.007225
      py      :     0.899133
      dz2     :     0.029575  d :     0.173895
      dxz     :     0.040249
      dyz     :     0.024601
      dx2y2   :     0.026685
      dxy     :     0.052786

 20 C s       :     2.883009  s :     2.883009
      pz      :     0.907421  p :     2.946770
      px      :     0.971435
      py      :     1.067914
      dz2     :     0.043989  d :     0.172630
      dxz     :     0.049821
      dyz     :     0.021627
      dx2y2   :     0.014722
      dxy     :     0.042472

 21 O s       :     3.534390  s :     3.534390
      pz      :     1.609844  p :     4.872342
      px      :     1.427882
      py      :     1.834615
      dz2     :     0.013473  d :     0.048082
      dxz     :     0.014228
      dyz     :     0.005381
      dx2y2   :     0.005174
      dxy     :     0.009828

 22 C s       :     2.891785  s :     2.891785
      pz      :     0.907250  p :     2.947779
      px      :     0.983056
      py      :     1.057473
      dz2     :     0.036509  d :     0.170063
      dxz     :     0.049934
      dyz     :     0.020836
      dx2y2   :     0.014923
      dxy     :     0.047861

 23 C s       :     2.915304  s :     2.915304
      pz      :     0.899071  p :     2.993186
      px      :     1.000173
      py      :     1.093942
      dz2     :     0.040564  d :     0.157622
      dxz     :     0.044187
      dyz     :     0.022444
      dx2y2   :     0.008986
      dxy     :     0.041441

 24 O s       :     3.547240  s :     3.547240
      pz      :     1.637439  p :     4.883319
      px      :     1.520629
      py      :     1.725251
      dz2     :     0.012346  d :     0.049608
      dxz     :     0.008503
      dyz     :     0.008395
      dx2y2   :     0.003014
      dxy     :     0.017350

 25 O s       :     3.476882  s :     3.476882
      pz      :     1.262217  p :     4.727296
      px      :     1.607842
      py      :     1.857236
      dz2     :     0.014187  d :     0.064293
      dxz     :     0.027800
      dyz     :     0.009099
      dx2y2   :     0.006737
      dxy     :     0.006470

 26 C s       :     2.860596  s :     2.860596
      pz      :     0.785804  p :     2.763619
      px      :     0.927700
      py      :     1.050115
      dz2     :     0.061191  d :     0.246167
      dxz     :     0.070563
      dyz     :     0.030533
      dx2y2   :     0.021907
      dxy     :     0.061973

 27 O s       :     3.538239  s :     3.538239
      pz      :     1.354207  p :     4.838328
      px      :     1.626408
      py      :     1.857714
      dz2     :     0.006856  d :     0.050377
      dxz     :     0.021764
      dyz     :     0.007725
      dx2y2   :     0.007257
      dxy     :     0.006775

 28 C s       :     2.889879  s :     2.889879
      pz      :     0.869655  p :     2.959990
      px      :     1.007057
      py      :     1.083277
      dz2     :     0.054093  d :     0.172472
      dxz     :     0.051676
      dyz     :     0.016262
      dx2y2   :     0.013939
      dxy     :     0.036502

 29 O s       :     3.540653  s :     3.540653
      pz      :     1.563972  p :     4.866496
      px      :     1.761344
      py      :     1.541180
      dz2     :     0.016976  d :     0.050227
      dxz     :     0.009691
      dyz     :     0.006263
      dx2y2   :     0.009051
      dxy     :     0.008247

 30 C s       :     2.835165  s :     2.835165
      pz      :     0.672905  p :     2.649064
      px      :     1.036473
      py      :     0.939686
      dz2     :     0.016455  d :     0.290724
      dxz     :     0.034133
      dyz     :     0.042819
      dx2y2   :     0.126995
      dxy     :     0.070321

 31 O s       :     3.537353  s :     3.537353
      pz      :     1.484487  p :     4.733654
      px      :     1.547151
      py      :     1.702016
      dz2     :     0.006544  d :     0.054739
      dxz     :     0.008980
      dyz     :     0.004635
      dx2y2   :     0.014328
      dxy     :     0.020252

 32 H s       :     0.862105  s :     0.862105

 33 H s       :     0.872519  s :     0.872519

 34 H s       :     0.861305  s :     0.861305

 35 H s       :     0.862545  s :     0.862545

 36 H s       :     0.871372  s :     0.871372

 37 H s       :     0.864655  s :     0.864655

 38 H s       :     0.868035  s :     0.868035

 39 H s       :     0.853739  s :     0.853739

 40 H s       :     0.860863  s :     0.860863

 41 H s       :     0.868076  s :     0.868076

 42 H s       :     0.839713  s :     0.839713

 43 H s       :     0.858800  s :     0.858800

 44 H s       :     0.860951  s :     0.860951

 45 H s       :     0.861338  s :     0.861338

 46 H s       :     0.881145  s :     0.881145

 47 H s       :     0.869720  s :     0.869720

 48 H s       :     0.895149  s :     0.895149

 49 H s       :     0.884610  s :     0.884610

 50 H s       :     0.881998  s :     0.881998

 51 H s       :     0.869332  s :     0.869332

 52 H s       :     0.660755  s :     0.660755

 53 H s       :     0.888028  s :     0.888028

 54 H s       :     0.868103  s :     0.868103

 55 H s       :     0.892220  s :     0.892220

 56 H s       :     0.668035  s :     0.668035

 57 H s       :     0.903653  s :     0.903653

 58 H s       :     0.659382  s :     0.659382

 59 H s       :     0.873401  s :     0.873401

 60 H s       :     0.659733  s :     0.659733



                      *****************************
                      * MAYER POPULATION ANALYSIS *
                      *****************************

  NA   - Mulliken gross atomic population
  ZA   - Total nuclear charge
  QA   - Mulliken gross atomic charge
  VA   - Mayer's total valence
  BVA  - Mayer's bonded valence
  FA   - Mayer's free valence

  ATOM       NA         ZA         QA         VA         BVA        FA
  0 O      8.5964     8.0000    -0.5964     1.9016     1.9016     0.0000
  1 C      5.1690     6.0000     0.8310     3.6950     3.6950    -0.0000
  2 C      6.3098     6.0000    -0.3098     3.6482     3.6482     0.0000
  3 H      0.7557     1.0000     0.2443     0.9119     0.9119     0.0000
  4 C      6.3029     6.0000    -0.3029     3.6813     3.6813    -0.0000
  5 C      6.2108     6.0000    -0.2108     3.7862     3.7862    -0.0000
  6 C      6.1433     6.0000    -0.1433     3.7991     3.7991     0.0000
  7 C      6.3939     6.0000    -0.3939     3.8809     3.8809    -0.0000
  8 C      6.3284     6.0000    -0.3284     3.7208     3.7208     0.0000
  9 C      6.2148     6.0000    -0.2148     3.7815     3.7815    -0.0000
 10 C      6.1211     6.0000    -0.1211     3.8170     3.8170    -0.0000
 11 C      6.4154     6.0000    -0.4154     3.8652     3.8652    -0.0000
 12 H      0.7559     1.0000     0.2441     0.9087     0.9087    -0.0000
 13 N      7.7749     7.0000    -0.7749     2.7683     2.7683    -0.0000
 14 C      6.1628     6.0000    -0.1628     3.5971     3.5971     0.0000
 15 C      6.3341     6.0000    -0.3341     3.7440     3.7440     0.0000
 16 C      6.3542     6.0000    -0.3542     3.7813     3.7813     0.0000
 17 C      5.9980     6.0000     0.0020     3.6474     3.6474    -0.0000
 18 O      8.7092     8.0000    -0.7092     1.6254     1.6254    -0.0000
 19 C      5.8794     6.0000     0.1206     3.6477     3.6477     0.0000
 20 C      5.7950     6.0000     0.2050     3.5970     3.5970    -0.0000
 21 O      8.8640     8.0000    -0.8640     1.5699     1.5699    -0.0000
 22 C      5.8896     6.0000     0.1104     3.6056     3.6056    -0.0000
 23 C      5.9611     6.0000     0.0389     3.7169     3.7169     0.0000
 24 O      8.8170     8.0000    -0.8170     1.5808     1.5808     0.0000
 25 O      8.6924     8.0000    -0.6924     1.6550     1.6550    -0.0000
 26 C      5.4161     6.0000     0.5839     3.5711     3.5711    -0.0000
 27 O      8.7995     8.0000    -0.7995     1.6250     1.6250    -0.0000
 28 C      5.8773     6.0000     0.1227     3.6329     3.6329    -0.0000
 29 O      8.8211     8.0000    -0.8211     1.5846     1.5846     0.0000
 30 C      5.1418     6.0000     0.8582     3.6475     3.6475     0.0000
 31 O      8.6498     8.0000    -0.6498     1.8448     1.8448    -0.0000
 32 H      0.7916     1.0000     0.2084     0.9209     0.9209    -0.0000
 33 H      0.8092     1.0000     0.1908     0.9288     0.9288     0.0000
 34 H      0.8089     1.0000     0.1911     0.9348     0.9348     0.0000
 35 H      0.8102     1.0000     0.1898     0.9342     0.9342     0.0000
 36 H      0.8162     1.0000     0.1838     0.9255     0.9255    -0.0000
 37 H      0.8004     1.0000     0.1996     0.9263     0.9263    -0.0000
 38 H      0.8011     1.0000     0.1989     0.9145     0.9145     0.0000
 39 H      0.7814     1.0000     0.2186     0.9233     0.9233     0.0000
 40 H      0.8093     1.0000     0.1907     0.9344     0.9344     0.0000
 41 H      0.8182     1.0000     0.1818     0.9339     0.9339     0.0000
 42 H      0.7406     1.0000     0.2594     0.9171     0.9171    -0.0000
 43 H      0.7920     1.0000     0.2080     0.9193     0.9193     0.0000
 44 H      0.7950     1.0000     0.2050     0.9204     0.9204     0.0000
 45 H      0.8052     1.0000     0.1948     0.9207     0.9207     0.0000
 46 H      0.8401     1.0000     0.1599     0.9280     0.9280    -0.0000
 47 H      0.8190     1.0000     0.1810     0.9243     0.9243    -0.0000
 48 H      0.8497     1.0000     0.1503     0.9295     0.9295     0.0000
 49 H      0.8228     1.0000     0.1772     0.9265     0.9265     0.0000
 50 H      0.8289     1.0000     0.1711     0.9331     0.9331     0.0000
 51 H      0.8069     1.0000     0.1931     0.9240     0.9240    -0.0000
 52 H      0.4765     1.0000     0.5235     0.7075     0.7075    -0.0000
 53 H      0.8327     1.0000     0.1673     0.9290     0.9290    -0.0000
 54 H      0.8105     1.0000     0.1895     0.9254     0.9254     0.0000
 55 H      0.8496     1.0000     0.1504     0.9270     0.9270     0.0000
 56 H      0.5062     1.0000     0.4938     0.7407     0.7407    -0.0000
 57 H      0.8543     1.0000     0.1457     0.9302     0.9302    -0.0000
 58 H      0.5314     1.0000     0.4686     0.7581     0.7581     0.0000
 59 H      0.8082     1.0000     0.1918     0.9244     0.9244     0.0000
 60 H      0.5294     1.0000     0.4706     0.7509     0.7509     0.0000

  Mayer bond orders larger than 0.100000
B(  0-O ,  1-C ) :   1.8097 B(  1-C ,  2-C ) :   0.9545 B(  1-C , 13-N ) :   0.9679 
B(  2-C ,  3-H ) :   0.9235 B(  2-C ,  4-C ) :   0.9537 B(  2-C ,  9-C ) :   0.9426 
B(  4-C ,  5-C ) :   0.9472 B(  4-C , 12-H ) :   0.9268 B(  4-C , 30-C ) :   0.9649 
B(  5-C ,  6-C ) :   0.9950 B(  5-C ,  8-C ) :   0.9672 B(  5-C , 32-H ) :   0.9520 
B(  6-C ,  7-C ) :   1.9514 B(  6-C , 33-H ) :   0.9376 B(  7-C , 34-H ) :   0.9516 
B(  7-C , 35-H ) :   0.9516 B(  8-C ,  9-C ) :   0.9684 B(  8-C , 36-H ) :   0.9493 
B(  8-C , 37-H ) :   0.9478 B(  9-C , 10-C ) :   1.0129 B(  9-C , 38-H ) :   0.9384 
B( 10-C , 11-C ) :   1.9525 B( 10-C , 39-H ) :   0.9339 B( 11-C , 40-H ) :   0.9516 
B( 11-C , 41-H ) :   0.9514 B( 13-N , 14-C ) :   0.7899 B( 13-N , 30-C ) :   1.0121 
B( 14-C , 15-C ) :   0.9731 B( 14-C , 42-H ) :   0.9086 B( 14-C , 43-H ) :   0.9490 
B( 15-C , 16-C ) :   0.9693 B( 15-C , 44-H ) :   0.9434 B( 15-C , 45-H ) :   0.9448 
B( 16-C , 17-C ) :   0.9852 B( 16-C , 46-H ) :   0.9502 B( 16-C , 47-H ) :   0.9543 
B( 17-C , 18-O ) :   0.8136 B( 17-C , 48-H ) :   0.9504 B( 17-C , 49-H ) :   0.9277 
B( 18-O , 19-C ) :   0.8010 B( 19-C , 20-C ) :   0.9877 B( 19-C , 28-C ) :   0.9598 
B( 19-C , 50-H ) :   0.9326 B( 20-C , 21-O ) :   0.8077 B( 20-C , 22-C ) :   0.9295 
B( 20-C , 51-H ) :   0.9331 B( 21-O , 52-H ) :   0.6487 B( 22-C , 23-C ) :   0.9841 
B( 22-C , 25-O ) :   0.7957 B( 22-C , 53-H ) :   0.9335 B( 23-C , 24-O ) :   0.8726 
B( 23-C , 54-H ) :   0.9493 B( 23-C , 55-H ) :   0.9451 B( 24-O , 56-H ) :   0.6906 
B( 25-O , 26-C ) :   0.8406 B( 26-C , 27-O ) :   0.8688 B( 26-C , 28-C ) :   0.9474 
B( 26-C , 57-H ) :   0.9405 B( 27-O , 58-H ) :   0.7333 B( 28-C , 29-O ) :   0.8190 
B( 28-C , 59-H ) :   0.9328 B( 29-O , 60-H ) :   0.7387 B( 30-C , 31-O ) :   1.6932 


-------
TIMINGS
-------

Total SCF time: 0 days 0 hours 9 min 11 sec 

Total time                  ....     551.513 sec
Sum of individual times     ....     551.484 sec  (100.0%)

SCF preparation             ....       0.065 sec  (  0.0%)
Fock matrix formation       ....     550.448 sec  ( 99.8%)
  Startup                   ....       0.022 sec  (  0.0% of F)
  Coulomb+Exchange Fock     ....     550.359 sec  (100.0% of F)
Diagonalization             ....       0.000 sec  (  0.0%)
Density matrix formation    ....       0.090 sec  (  0.0%)
Total Energy calculation    ....       0.026 sec  (  0.0%)
Population analysis         ....       0.038 sec  (  0.0%)
Orbital Transformation      ....       0.083 sec  (  0.0%)
Orbital Orthonormalization  ....       0.000 sec  (  0.0%)
DIIS solution               ....       0.500 sec  (  0.1%)
SOSCF solution              ....       0.234 sec  (  0.0%)
Finished LeanSCF after 551.5 sec

Maximum memory used throughout the entire LEANSCF-calculation: 49.5 MB

-------------------------   --------------------
FINAL SINGLE POINT ENERGY     -1466.577359217394
-------------------------   --------------------

------------------------------------------------------------------------------
                         ORCA SCF GRADIENT CALCULATION
------------------------------------------------------------------------------

Nuc. rep. gradient        (SHARK) ... done (  0.0 sec)
HCore & Overlap gradient  (SHARK) ... done (  3.1 sec)
Two-electron gradient     (SHARK) ... done (189.6 sec)

------------------
CARTESIAN GRADIENT
------------------

   1   O   :   -0.004263898    0.029734661    0.005118622
   2   C   :   -0.001316381   -0.034030694   -0.006728888
   3   C   :    0.004859446   -0.000501233   -0.006592784
   4   H   :   -0.000803620   -0.000540538    0.002370270
   5   C   :    0.000072934    0.006954493   -0.005941541
   6   C   :    0.000587771    0.006941606   -0.001907280
   7   C   :   -0.006233404    0.000813339    0.010153852
   8   C   :    0.001569771   -0.001668120   -0.000809967
   9   C   :    0.005761038    0.005645100    0.003143596
  10   C   :   -0.002266910   -0.005030042    0.003340084
  11   C   :    0.012184170   -0.005216981   -0.001444504
  12   C   :   -0.002358794   -0.001201005   -0.000689146
  13   H   :   -0.000798127   -0.001054594    0.001686084
  14   N   :    0.008036512    0.007790360    0.000115857
  15   C   :   -0.006493473    0.004349703   -0.008543026
  16   C   :   -0.001768072   -0.010624369   -0.003395298
  17   C   :    0.003367268   -0.004935450    0.005942137
  18   C   :   -0.010503936    0.008644000   -0.000378523
  19   O   :    0.009211116    0.007194705    0.004919337
  20   C   :    0.007594069   -0.002964333    0.001213012
  21   C   :    0.000475044   -0.005605940   -0.009032905
  22   O   :    0.009197728    0.005131318    0.011631737
  23   C   :   -0.003861172    0.004281661    0.006937171
  24   C   :   -0.000682252    0.005946848   -0.012098280
  25   O   :    0.005787512   -0.013515058    0.008839465
  26   O   :    0.015473574   -0.001868829    0.002852073
  27   C   :   -0.016609426    0.008190928    0.002411063
  28   O   :    0.014648270   -0.006143337    0.005508123
  29   C   :   -0.001711485   -0.006177587    0.003905304
  30   O   :    0.002807042   -0.013098515   -0.002488082
  31   C   :   -0.029143962    0.005877078   -0.002838169
  32   O   :    0.023975581   -0.012158538   -0.000157157
  33   H   :   -0.000206681   -0.002533759    0.000508231
  34   H   :    0.000400939    0.005250066    0.000276985
  35   H   :    0.002415376    0.003007005   -0.002537012
  36   H   :   -0.001350946   -0.004459939    0.002333962
  37   H   :   -0.000773625   -0.000925282    0.002043092
  38   H   :   -0.000263770    0.000403755   -0.002347983
  39   H   :    0.002116761    0.001099664   -0.001295619
  40   H   :   -0.000208912    0.003778810    0.001810649
  41   H   :   -0.002883106    0.003135070    0.001260255
  42   H   :    0.001888991   -0.004905023   -0.001766925
  43   H   :    0.003521807   -0.004366009   -0.000889077
  44   H   :   -0.000174326    0.000782720    0.003101812
  45   H   :   -0.001391428    0.002171325    0.000341248
  46   H   :    0.002176478    0.001095914    0.001278981
  47   H   :   -0.001730912   -0.002281833    0.000142554
  48   H   :    0.000793449    0.001512724   -0.001406970
  49   H   :   -0.001297181   -0.000598793   -0.002588757
  50   H   :   -0.003005876   -0.005463942    0.004556952
  51   H   :   -0.002471501   -0.003496792   -0.000019506
  52   H   :    0.003881489    0.002967988   -0.000012783
  53   H   :   -0.013919425   -0.005936703   -0.005853349
  54   H   :   -0.003048920   -0.001891533   -0.001283184
  55   H   :    0.002346476   -0.002916522   -0.001808982
  56   H   :    0.000866716    0.003075889    0.000715615
  57   H   :   -0.013073191    0.010983901   -0.001228685
  58   H   :   -0.003171606   -0.003260918    0.000368072
  59   H   :   -0.005149441    0.006221155   -0.012149536
  60   H   :    0.002329905    0.003190252    0.001193172
  61   H   :   -0.005411474    0.013200173   -0.001785451

Difference to translation invariance:
           :   -0.0000000000   -0.0000000000    0.0000000000

Difference to rotation invariance:
           :   -0.0000020422    0.0000011183    0.0000002658

Norm of the Cartesian gradient     ...    0.0934515016
RMS gradient                       ...    0.0069081338
MAX gradient                       ...    0.0340306944

-------
TIMINGS
-------

Total SCF gradient time     ....      192.767 sec

Densities                   ....       0.005 sec  (  0.0%)
One electron gradient       ....       3.119 sec  (  1.6%)
Two electron gradient       ....     189.642 sec  ( 98.4%)

Maximum memory used throughout the entire SCFGRAD-calculation: 109.8 MB
------------------------------------------------------------------------------
                         ORCA GEOMETRY RELAXATION STEP
------------------------------------------------------------------------------

Reading the OPT-File                    .... done
Getting information on internals        .... done
Copying old internal coords+grads       .... done
Making the new internal coordinates     .... (2022 redundants) done
Validating the new internal coordinates .... (2022 redundants) done
Calculating the B-matrix                .... done
Calculating the G,G- and P matrices     .... done
Transforming gradient to internals      .... done
Projecting the internal gradient        .... done
Number of atoms                         ....  61
Number of internal coordinates          .... 327
Current Energy                          .... -1466.577359217 Eh
Current gradient norm                   ....     0.093451502 Eh/bohr
Maximum allowed component of the step   ....  0.300
Current trust radius                    ....  0.300
Evaluating the initial hessian          ....  (Almloef) done
Projecting the Hessian                  .... done
Forming the augmented Hessian           .... done
Diagonalizing the augmented Hessian     .... done
Last element of RFO vector              ....  0.930446007
Lowest eigenvalues of augmented Hessian:
 -0.012987615  0.001152454  0.012052592  0.012339524  0.012564018
Length of the computed step             ....  0.393820834
Warning: the length of the step is outside the trust region - taking restricted step instead
The input lambda is                     ....    -0.000176
   iter:   5  x=   -0.009403  g=   66.874725 f(x)=     0.273591
   iter:  10  x=   -0.022689  g=    3.934185 f(x)=     0.000011
The output lambda is                    ....    -0.022689 (12 iterations)
The final length of the internal step   ....  0.300000000
Converting the step to Cartesian space:
 Initial RMS(Int)=    0.0165900379
Transforming coordinates:
 Iter   0:  RMS(Cart)=    0.2374370207 RMS(Int)=    0.0196963313
 Iter   5:  RMS(Cart)=    0.0000010918 RMS(Int)=    0.0000003088
done
Storing new coordinates                 .... done

                                .--------------------.
          ----------------------|Geometry convergence|-------------------------
          Item                value                   Tolerance       Converged
          ---------------------------------------------------------------------
          RMS gradient        0.0039103289            0.0001000000      NO
          MAX gradient        0.0303769854            0.0003000000      NO
          RMS step            0.0165900379            0.0020000000      NO
          MAX step            0.1112114129            0.0040000000      NO
          ........................................................
          Max(Bonds)      0.0589      Max(Angles)    1.21
          Max(Dihed)        3.89      Max(Improp)    0.00
          ---------------------------------------------------------------------

The optimization has not yet converged - more geometry cycles are needed


    ---------------------------------------------------------------------------
                         Redundant Internal Coordinates
                            (Angstroem and degrees)

        Definition                    Value    dE/dq     Step     New-Value
    ----------------------------------------------------------------------------
     1. B(C   1,O   0)                1.2075  0.030377 -0.0144    1.1932   
     2. B(C   2,C   1)                1.5005 -0.006822  0.0080    1.5085   
     3. B(H   3,C   2)                1.0869  0.002441 -0.0033    1.0836   
     4. B(C   4,C   2)                1.5271 -0.006611  0.0083    1.5353   
     5. B(C   5,C   4)                1.5514 -0.008407  0.0123    1.5637   
     6. B(C   6,C   5)                1.4960 -0.009499  0.0110    1.5070   
     7. B(C   7,C   6)                1.3219  0.005220 -0.0032    1.3187   
     8. B(C   8,C   5)                1.5315 -0.007481  0.0101    1.5416   
     9. B(C   9,C   8)                1.5214 -0.008094  0.0107    1.5321   
    10. B(C   9,C   2)                1.5412 -0.006700  0.0094    1.5506   
    11. B(C  10,C   9)                1.4932 -0.009680  0.0114    1.5046   
    12. B(C  11,C  10)                1.3231  0.004396 -0.0028    1.3203   
    13. B(H  12,C   4)                1.0859  0.002044 -0.0028    1.0831   
    14. B(N  13,C   1)                1.3821 -0.000989  0.0010    1.3831   
    15. B(C  14,N  13)                1.4571 -0.006748  0.0089    1.4661   
    16. B(C  15,C  14)                1.5190 -0.008196  0.0111    1.5302   
    17. B(C  16,C  15)                1.5194 -0.009373  0.0117    1.5311   
    18. B(C  17,C  16)                1.5056 -0.011023  0.0135    1.5190   
    19. B(O  18,C  17)                1.4211  0.009496 -0.0090    1.4121   
    20. B(C  19,O  18)                1.4104  0.002730 -0.0024    1.4079   
    21. B(C  20,C  19)                1.5147 -0.005969  0.0086    1.5233   
    22. B(O  21,C  20)                1.4135  0.004538 -0.0051    1.4084   
    23. B(C  22,C  20)                1.5258 -0.004255  0.0078    1.5336   
    24. B(C  23,C  22)                1.5144 -0.005031  0.0076    1.5220   
    25. B(O  24,C  23)                1.4114  0.011846 -0.0112    1.4002   
    26. B(O  25,C  22)                1.4171  0.005833 -0.0060    1.4110   
    27. B(C  26,O  25)                1.3983  0.008387 -0.0084    1.3899   
    28. B(O  27,C  26)                1.3913  0.010816 -0.0102    1.3811   
    29. B(C  28,C  26)                1.5136 -0.004875  0.0046    1.5182   
    30. B(C  28,C  19)                1.5146 -0.003779  0.0050    1.5196   
    31. B(O  29,C  28)                1.4104  0.004805 -0.0048    1.4056   
    32. B(C  30,N  13)                1.3772  0.003988 -0.0028    1.3744   
    33. B(C  30,C   4)                1.5014 -0.006745  0.0087    1.5102   
    34. B(O  31,C  30)                1.2120  0.024150 -0.0119    1.2001   
    35. B(H  32,C   5)                1.0861  0.002565 -0.0035    1.0826   
    36. B(H  33,C   6)                1.0845  0.005067 -0.0069    1.0776   
    37. B(H  34,C   7)                1.0805  0.002989 -0.0043    1.0762   
    38. B(H  35,C   7)                1.0824  0.004857 -0.0065    1.0759   
    39. B(H  36,C   8)                1.0898  0.002183 -0.0030    1.0867   
    40. B(H  37,C   8)                1.0867  0.002246 -0.0031    1.0837   
    41. B(H  38,C   9)                1.0923  0.002502 -0.0035    1.0888   
    42. B(H  39,C  10)                1.0836  0.004160 -0.0056    1.0780   
    43. B(H  40,C  11)                1.0804  0.004278 -0.0057    1.0746   
    44. B(H  41,C  11)                1.0812  0.004950 -0.0066    1.0746   
    45. B(H  42,C  14)                1.0824  0.005483 -0.0074    1.0750   
    46. B(H  43,C  14)                1.0871  0.003131 -0.0043    1.0828   
    47. B(H  44,C  15)                1.0865  0.002581 -0.0035    1.0830   
    48. B(H  45,C  15)                1.0884  0.002543 -0.0035    1.0849   
    49. B(H  46,C  16)                1.0907  0.002052 -0.0028    1.0879   
    50. B(H  47,C  16)                1.0892  0.002201 -0.0030    1.0862   
    51. B(H  48,C  17)                1.0916  0.001601 -0.0025    1.0891   
    52. B(H  48,H  34)                2.9317 -0.003032  0.0589    2.9905   
    53. B(H  49,C  17)                1.0871  0.007689 -0.0105    1.0766   
    54. B(H  50,C  19)                1.0942  0.004207 -0.0059    1.0883   
    55. B(H  51,C  20)                1.0903  0.004674 -0.0065    1.0838   
    56. B(H  52,O  21)                0.9686  0.012976 -0.0136    0.9550   
    57. B(H  52,O  31)                1.9836 -0.003433  0.0425    2.0262   
    58. B(H  53,C  22)                1.0951  0.003546 -0.0050    1.0901   
    59. B(H  54,C  23)                1.0863  0.004054 -0.0055    1.0807   
    60. B(H  55,C  23)                1.0922  0.003125 -0.0044    1.0879   
    61. B(H  56,O  24)                0.9661  0.014429 -0.0152    0.9508   
    62. B(H  56,O  21)                1.9824 -0.003257  0.0319    2.0142   
    63. B(H  57,C  26)                1.0967  0.004411 -0.0062    1.0905   
    64. B(H  58,O  27)                0.9635  0.014811 -0.0145    0.9490   
    65. B(H  58,O  29)                2.3542  0.000790 -0.0056    2.3486   
    66. B(H  59,C  28)                1.0917  0.004070 -0.0057    1.0860   
    67. B(H  60,O  29)                0.9612  0.014369 -0.0141    0.9471   
    68. A(O   0,C   1,N  13)          123.74 -0.002393    0.24    123.99   
    69. A(O   0,C   1,C   2)          127.49  0.002768   -0.38    127.11   
    70. A(C   2,C   1,N  13)          108.77 -0.000374    0.13    108.90   
    71. A(C   1,C   2,H   3)          108.31 -0.000250    0.01    108.32   
    72. A(H   3,C   2,C   4)          112.37 -0.001061    0.12    112.49   
    73. A(H   3,C   2,C   9)          110.67  0.002402   -0.55    110.13   
    74. A(C   1,C   2,C   9)          114.17 -0.001651    0.34    114.52   
    75. A(C   4,C   2,C   9)          106.40 -0.001902    0.37    106.77   
    76. A(C   1,C   2,C   4)          104.85  0.002344   -0.26    104.59   
    77. A(H  12,C   4,C  30)          107.65  0.002096   -0.64    107.01   
    78. A(C   2,C   4,H  12)          112.22 -0.000965    0.07    112.29   
    79. A(C   5,C   4,C  30)          115.64 -0.003281    1.05    116.69   
    80. A(C   2,C   4,C   5)          106.99  0.001136   -0.25    106.74   
    81. A(C   2,C   4,C  30)          104.77  0.001087   -0.19    104.58   
    82. A(C   5,C   4,H  12)          109.58 -0.000135   -0.03    109.55   
    83. A(C   6,C   5,C   8)          111.50  0.000846   -0.23    111.27   
    84. A(C   4,C   5,C   8)          101.71  0.000274   -0.21    101.49   
    85. A(C   6,C   5,H  32)          108.45  0.000263   -0.10    108.35   
    86. A(C   4,C   5,H  32)          109.89  0.000516   -0.11    109.78   
    87. A(C   4,C   5,C   6)          113.89 -0.001272    0.60    114.48   
    88. A(C   8,C   5,H  32)          111.33 -0.000658    0.06    111.39   
    89. A(C   5,C   6,C   7)          124.16 -0.007732    0.89    125.05   
    90. A(C   5,C   6,H  33)          116.84  0.002822   -0.31    116.53   
    91. A(C   7,C   6,H  33)          119.00  0.004908   -0.58    118.41   
    92. A(C   6,C   7,H  35)          121.13 -0.002905    0.40    121.53   
    93. A(C   6,C   7,H  34)          121.27  0.001959   -0.20    121.07   
    94. A(H  34,C   7,H  35)          117.59  0.000951   -0.20    117.39   
    95. A(C   9,C   8,H  36)          109.39 -0.000289    0.10    109.50   
    96. A(C   5,C   8,H  36)          109.12  0.000074    0.07    109.18   
    97. A(H  36,C   8,H  37)          108.18  0.001005   -0.27    107.91   
    98. A(C   5,C   8,C   9)          104.61 -0.000430    0.06    104.67   
    99. A(C   5,C   8,H  37)          112.41  0.000217   -0.02    112.39   
   100. A(C   9,C   8,H  37)          113.05 -0.000626    0.07    113.12   
   101. A(C   2,C   9,C  10)          113.16  0.000595   -0.06    113.10   
   102. A(C  10,C   9,H  38)          107.26  0.001531   -0.38    106.87   
   103. A(C   2,C   9,C   8)          102.56  0.001276   -0.17    102.39   
   104. A(C   8,C   9,H  38)          108.69  0.000438   -0.19    108.49   
   105. A(C   2,C   9,H  38)          107.84 -0.001003    0.05    107.89   
   106. A(C   8,C   9,C  10)          116.97 -0.002838    0.73    117.70   
   107. A(C   9,C  10,H  39)          115.18  0.002780   -0.40    114.78   
   108. A(C  11,C  10,H  39)          119.20  0.001768   -0.22    118.98   
   109. A(C   9,C  10,C  11)          125.61 -0.004547    0.62    126.23   
   110. A(H  40,C  11,H  41)          117.25  0.002506   -0.42    116.83   
   111. A(C  10,C  11,H  41)          121.90 -0.002574    0.40    122.30   
   112. A(C  10,C  11,H  40)          120.85  0.000069    0.02    120.87   
   113. A(C   1,N  13,C  30)          112.53 -0.002247    0.24    112.77   
   114. A(C   1,N  13,C  14)          123.23 -0.002357    0.05    123.28   
   115. A(C  14,N  13,C  30)          123.90  0.004617   -0.34    123.56   
   116. A(N  13,C  14,C  15)          114.65 -0.006673    1.21    115.86   
   117. A(H  42,C  14,H  43)          107.81 -0.000671   -0.17    107.63   
   118. A(C  15,C  14,H  43)          109.76  0.000720   -0.22    109.54   
   119. A(N  13,C  14,H  43)          107.81  0.002199   -0.44    107.37   
   120. A(C  15,C  14,H  42)          110.46  0.004195   -0.67    109.79   
   121. A(N  13,C  14,H  42)          106.09  0.000445    0.24    106.32   
   122. A(H  44,C  15,H  45)          106.77 -0.000847   -0.23    106.53   
   123. A(C  14,C  15,C  16)          115.68 -0.003055    0.84    116.53   
   124. A(C  16,C  15,H  45)          109.74  0.002442   -0.62    109.12   
   125. A(C  14,C  15,H  45)          105.96  0.001161   -0.29    105.67   
   126. A(C  16,C  15,H  44)          108.56  0.000454    0.25    108.80   
   127. A(C  14,C  15,H  44)          109.77 -0.000002   -0.05    109.72   
   128. A(C  17,C  16,H  47)          109.67  0.000293   -0.20    109.47   
   129. A(H  46,C  16,H  47)          106.32  0.000054   -0.29    106.03   
   130. A(C  15,C  16,H  47)          108.61  0.001114   -0.27    108.34   
   131. A(C  17,C  16,H  46)          106.63  0.000398    0.29    106.92   
   132. A(C  15,C  16,H  46)          109.95  0.000400   -0.04    109.91   
   133. A(C  15,C  16,C  17)          115.29 -0.002124    0.47    115.76   
   134. A(C  16,C  17,O  18)          110.71 -0.000450   -0.01    110.70   
   135. A(O  18,C  17,H  49)          108.66  0.000893   -0.14    108.52   
   136. A(C  16,C  17,H  49)          110.60  0.000008    0.06    110.66   
   137. A(O  18,C  17,H  48)          109.94 -0.000159    0.08    110.02   
   138. A(C  16,C  17,H  48)          109.87 -0.001579    0.33    110.20   
   139. A(H  48,C  17,H  49)          106.98  0.001373   -0.33    106.64   
   140. A(C  17,O  18,C  19)          113.61 -0.006194    1.10    114.71   
   141. A(O  18,C  19,C  20)          111.30 -0.001830    0.39    111.69   
   142. A(C  28,C  19,H  50)          108.25 -0.000642    0.01    108.27   
   143. A(C  20,C  19,H  50)          108.40 -0.000751    0.13    108.53   
   144. A(O  18,C  19,H  50)          109.59  0.000541    0.02    109.61   
   145. A(C  20,C  19,C  28)          109.41  0.002763   -0.26    109.15   
   146. A(O  18,C  19,C  28)          109.83 -0.000058   -0.30    109.53   
   147. A(O  21,C  20,C  22)          110.94  0.001862   -0.20    110.74   
   148. A(C  19,C  20,C  22)          109.43  0.000336    0.13    109.56   
   149. A(C  19,C  20,O  21)          113.13 -0.003387    0.48    113.61   
   150. A(O  21,C  20,H  51)          106.27  0.001206   -0.34    105.93   
   151. A(C  19,C  20,H  51)          108.85  0.001299   -0.23    108.62   
   152. A(C  22,C  20,H  51)          108.04 -0.001236    0.14    108.18   
   153. A(C  20,O  21,H  52)          112.04 -0.006078    0.85    112.89   
   154. A(O  25,C  22,H  53)          109.88 -0.000675    0.02    109.91   
   155. A(C  23,C  22,H  53)          108.85  0.001816   -0.40    108.46   
   156. A(C  20,C  22,H  53)          109.13 -0.000664    0.01    109.14   
   157. A(C  23,C  22,O  25)          106.85 -0.001322   -0.03    106.82   
   158. A(C  20,C  22,O  25)          109.43  0.000972   -0.09    109.35   
   159. A(C  20,C  22,C  23)          112.65 -0.000149    0.48    113.12   
   160. A(H  54,C  23,H  55)          108.10  0.001268   -0.31    107.79   
   161. A(C  22,C  23,H  55)          109.15 -0.001132    0.20    109.35   
   162. A(O  24,C  23,H  54)          107.62 -0.000607   -0.12    107.50   
   163. A(C  22,C  23,H  54)          108.57 -0.000744   -0.02    108.55   
   164. A(O  24,C  23,H  55)          111.20 -0.000622    0.08    111.27   
   165. A(C  22,C  23,O  24)          112.08  0.001841    0.14    112.22   
   166. A(C  23,O  24,H  56)          106.91 -0.000203    0.22    107.13   
   167. A(C  22,O  25,C  26)          112.46 -0.007055    1.17    113.62   
   168. A(C  28,C  26,H  57)          109.48 -0.000862    0.17    109.65   
   169. A(O  27,C  26,H  57)          110.54  0.001140   -0.23    110.31   
   170. A(O  25,C  26,H  57)          109.35  0.000277    0.12    109.47   
   171. A(O  27,C  26,C  28)          111.85  0.000146   -0.13    111.72   
   172. A(O  25,C  26,C  28)          109.77  0.001849   -0.44    109.33   
   173. A(O  25,C  26,O  27)          105.77 -0.002547    0.51    106.28   
   174. A(C  26,O  27,H  58)          107.93 -0.000363   -0.08    107.86   
   175. A(O  29,C  28,H  59)          110.50  0.000807   -0.19    110.31   
   176. A(C  26,C  28,H  59)          107.91  0.000287   -0.13    107.78   
   177. A(C  19,C  28,H  59)          109.16 -0.000562    0.04    109.20   
   178. A(C  26,C  28,O  29)          107.19 -0.000061    0.06    107.25   
   179. A(C  19,C  28,O  29)          112.02  0.000407   -0.09    111.93   
   180. A(C  19,C  28,C  26)          109.96 -0.000879    0.31    110.27   
   181. A(C  28,O  29,H  60)          108.84  0.000871   -0.13    108.71   
   182. A(N  13,C  30,O  31)          124.53 -0.000462    0.10    124.64   
   183. A(C   4,C  30,O  31)          126.59  0.001251   -0.22    126.37   
   184. A(C   4,C  30,N  13)          108.88 -0.000790    0.11    108.99   
   185. D(C   9,C   2,C   1,O   0)     65.19  0.001920   -0.89     64.30   
   186. D(H   3,C   2,C   1,N  13)    121.36  0.002027   -2.03    119.33   
   187. D(H   3,C   2,C   1,O   0)    -58.59  0.000141   -0.43    -59.02   
   188. D(C   4,C   2,C   1,N  13)      1.20  0.002129   -2.03     -0.84   
   189. D(C   4,C   2,C   1,O   0)   -178.76  0.000243   -0.43   -179.19   
   190. D(C   5,C   4,C   2,H   3)    120.75  0.000061    0.85    121.59   
   191. D(H  12,C   4,C   2,H   3)      0.52  0.000059    1.01      1.53   
   192. D(C   5,C   4,C   2,C   1)   -121.83  0.000628    0.76   -121.07   
   193. D(H  12,C   4,C   2,C   1)    117.94  0.000626    0.92    118.86   
   194. D(H  12,C   4,C   2,C   9)   -120.75 -0.001020    1.36   -119.38   
   195. D(C   5,C   4,C   2,C   9)     -0.52 -0.001018    1.20      0.68   
   196. D(C   6,C   5,C   4,C  30)    -20.20  0.001387   -1.40    -21.60   
   197. D(C   8,C   5,C   4,C  30)   -140.28  0.000829   -1.28   -141.56   
   198. D(C   8,C   5,C   4,C   2)    -24.02  0.001073   -1.09    -25.11   
   199. D(C   6,C   5,C   4,C   2)     96.06  0.001630   -1.20     94.85   
   200. D(C   6,C   5,C   4,H  12)   -142.05  0.001076   -1.28   -143.33   
   201. D(C   8,C   5,C   4,H  12)     97.87  0.000519   -1.17     96.70   
   202. D(C   7,C   6,C   5,C   8)   -124.47  0.000683   -0.71   -125.18   
   203. D(H  33,C   6,C   5,C   4)    -59.52  0.000530   -0.86    -60.37   
   204. D(C   7,C   6,C   5,C   4)    121.14  0.000580   -0.66    120.47   
   205. D(C   7,C   6,C   5,H  32)     -1.54  0.000587   -0.85     -2.39   
   206. D(H  33,C   6,C   5,C   8)     54.88  0.000633   -0.90     53.98   
   207. D(H  35,C   7,C   6,C   5)     -0.89  0.000071   -0.18     -1.08   
   208. D(H  34,C   7,C   6,H  33)      0.16 -0.000833    0.62      0.78   
   209. D(H  34,C   7,C   6,C   5)    179.49 -0.000899    0.42    179.92   
   210. D(H  35,C   7,C   6,H  33)    179.77  0.000137    0.01    179.79   
   211. D(H  36,C   8,C   5,C   4)    -76.67 -0.000450    0.45    -76.23   
   212. D(H  36,C   8,C   5,C   6)    161.59  0.000477   -0.02    161.57   
   213. D(C   9,C   8,C   5,H  32)    157.29 -0.000513    0.41    157.70   
   214. D(C   9,C   8,C   5,C   6)    -81.45 -0.000047    0.17    -81.28   
   215. D(C   9,C   8,C   5,C   4)     40.30 -0.000974    0.63     40.93   
   216. D(H  36,C   8,C   5,H  32)     40.32  0.000011    0.23     40.55   
   217. D(C  10,C   9,C   8,H  37)     71.96  0.000244   -0.14     71.82   
   218. D(C  10,C   9,C   8,C   5)   -165.43 -0.000142   -0.08   -165.51   
   219. D(C   2,C   9,C   8,H  37)   -163.60  0.000231    0.10   -163.50   
   220. D(C   2,C   9,C   8,H  36)     75.79 -0.000430    0.32     76.11   
   221. D(C   2,C   9,C   8,C   5)    -40.99 -0.000154    0.16    -40.82   
   222. D(C  10,C   9,C   2,C   4)    152.04 -0.001496   -0.10    151.93   
   223. D(C  10,C   9,C   2,C   1)    -92.82 -0.000726   -0.00    -92.82   
   224. D(C   8,C   9,C   2,C   4)     25.12  0.000777   -0.86     24.26   
   225. D(C   8,C   9,C   2,H   3)    -97.23  0.001863   -0.92    -98.15   
   226. D(C  10,C   9,C   8,H  36)    -48.65 -0.000417    0.08    -48.57   
   227. D(C   8,C   9,C   2,C   1)    140.27  0.001547   -0.76    139.51   
   228. D(C  10,C   9,C   2,H   3)     29.69 -0.000409   -0.16     29.52   
   229. D(H  39,C  10,C   9,C   8)    173.85  0.000016    0.12    173.97   
   230. D(H  39,C  10,C   9,C   2)     54.97 -0.000022   -0.17     54.80   
   231. D(C  11,C  10,C   9,H  38)    115.63  0.000020   -0.10    115.53   
   232. D(C  11,C  10,C   9,C   8)     -6.67  0.000177   -0.05     -6.72   
   233. D(C  11,C  10,C   9,C   2)   -125.56  0.000139   -0.33   -125.89   
   234. D(H  41,C  11,C  10,H  39)    179.63  0.000295   -0.26    179.37   
   235. D(H  41,C  11,C  10,C   9)      0.18  0.000124   -0.09      0.09   
   236. D(H  40,C  11,C  10,H  39)     -0.18  0.000076   -0.08     -0.26   
   237. D(H  40,C  11,C  10,C   9)   -179.63 -0.000094    0.09   -179.54   
   238. D(C  30,N  13,C   1,C   2)     -3.73 -0.001139    1.52     -2.21   
   239. D(C  30,N  13,C   1,O   0)    176.23  0.000663   -0.01    176.22   
   240. D(C  14,N  13,C   1,C   2)   -177.31 -0.001582    1.99   -175.32   
   241. D(C  14,N  13,C   1,O   0)      2.65  0.000220    0.46      3.11   
   242. D(H  43,C  14,N  13,C   1)     57.15  0.001892   -3.60     53.55   
   243. D(H  42,C  14,N  13,C  30)     -0.44  0.002386   -3.40     -3.84   
   244. D(H  42,C  14,N  13,C   1)    172.42  0.002374   -3.89    168.53   
   245. D(C  15,C  14,N  13,C  30)    121.74  0.003825   -3.31    118.43   
   246. D(C  15,C  14,N  13,C   1)    -65.41  0.003813   -3.80    -69.20   
   247. D(C  16,C  15,C  14,N  13)    -47.12  0.001230   -2.61    -49.72   
   248. D(H  44,C  15,C  14,H  43)    -45.37  0.000830   -1.80    -47.17   
   249. D(H  44,C  15,C  14,H  42)   -164.11 -0.001369   -1.04   -165.15   
   250. D(H  44,C  15,C  14,N  13)     76.12 -0.000441   -1.69     74.43   
   251. D(C  16,C  15,C  14,H  43)   -168.61  0.002501   -2.71   -171.33   
   252. D(C  16,C  15,C  14,H  42)     72.65  0.000302   -1.96     70.70   
   253. D(H  46,C  16,C  15,H  45)   -167.39 -0.001187    0.65   -166.73   
   254. D(H  46,C  16,C  15,H  44)    -51.05 -0.000596    0.17    -50.87   
   255. D(H  46,C  16,C  15,C  14)     72.83 -0.002455    0.92     73.74   
   256. D(C  17,C  16,C  15,H  45)     72.06 -0.000526   -0.02     72.05   
   257. D(C  17,C  16,C  15,H  44)   -171.59  0.000066   -0.50   -172.09   
   258. D(C  17,C  16,C  15,C  14)    -47.72 -0.001793    0.24    -47.48   
   259. D(H  48,C  17,C  16,H  47)    -53.31  0.000261   -0.07    -53.38   
   260. D(H  48,C  17,C  16,H  46)     61.42  0.000680   -0.36     61.05   
   261. D(H  48,C  17,C  16,C  15)   -176.24  0.000105    0.11   -176.14   
   262. D(O  18,C  17,C  16,H  47)     68.32 -0.001288    0.24     68.56   
   263. D(O  18,C  17,C  16,H  46)   -176.96 -0.000869   -0.05   -177.01   
   264. D(O  18,C  17,C  16,C  15)    -54.62 -0.001443    0.42    -54.20   
   265. D(C  19,O  18,C  17,H  49)     47.21  0.000269    0.55     47.76   
   266. D(C  19,O  18,C  17,H  48)    -69.56 -0.001808    0.99    -68.57   
   267. D(C  19,O  18,C  17,C  16)    168.86  0.000577    0.52    169.38   
   268. D(H  50,C  19,O  18,C  17)     -4.11 -0.002139    1.43     -2.69   
   269. D(C  28,C  19,O  18,C  17)    114.68 -0.002630    1.28    115.96   
   270. D(C  20,C  19,O  18,C  17)   -124.00 -0.000395    1.01   -122.99   
   271. D(C  22,C  20,C  19,H  50)     63.76 -0.000202    0.58     64.34   
   272. D(C  22,C  20,C  19,C  28)    -54.09 -0.000555    0.64    -53.45   
   273. D(C  22,C  20,C  19,O  18)   -175.65 -0.001149    0.93   -174.72   
   274. D(O  21,C  20,C  19,H  50)    -60.49 -0.000453    0.40    -60.08   
   275. D(O  21,C  20,C  19,C  28)   -178.34 -0.000806    0.46   -177.88   
   276. D(O  21,C  20,C  19,O  18)     60.10 -0.001400    0.75     60.86   
   277. D(H  52,O  21,C  20,H  51)    154.55 -0.000095    0.29    154.84   
   278. D(H  52,O  21,C  20,C  22)    -88.25  0.000108    0.15    -88.10   
   279. D(H  52,O  21,C  20,C  19)     35.17 -0.000534    0.52     35.68   
   280. D(O  25,C  22,C  20,H  51)    -60.77  0.001395   -0.88    -61.65   
   281. D(O  25,C  22,C  20,O  21)   -176.88 -0.000357   -0.44   -177.32   
   282. D(O  25,C  22,C  20,C  19)     57.60  0.002429   -1.00     56.60   
   283. D(C  23,C  22,C  20,H  51)     57.94  0.000293   -0.68     57.26   
   284. D(C  23,C  22,C  20,O  21)    -58.18 -0.001459   -0.23    -58.41   
   285. D(C  23,C  22,C  20,C  19)    176.31  0.001327   -0.80    175.51   
   286. D(H  54,C  23,C  22,H  53)     68.90  0.000486   -0.95     67.95   
   287. D(H  54,C  23,C  22,O  25)    -49.71  0.001052   -0.75    -50.46   
   288. D(H  54,C  23,C  22,C  20)   -169.92  0.000810   -0.91   -170.82   
   289. D(O  24,C  23,C  22,H  53)    -49.84  0.000603   -0.88    -50.72   
   290. D(O  24,C  23,C  22,O  25)   -168.46  0.001169   -0.68   -169.14   
   291. D(O  24,C  23,C  22,C  20)     71.34  0.000928   -0.84     70.50   
   292. D(H  56,O  24,C  23,H  55)     73.87  0.000114   -0.73     73.14   
   293. D(H  56,O  24,C  23,H  54)   -167.91  0.000929   -1.13   -169.05   
   294. D(H  56,O  24,C  23,C  22)    -48.61  0.000712   -1.15    -49.76   
   295. D(C  26,O  25,C  22,H  53)     56.54 -0.000161    0.19     56.73   
   296. D(C  26,O  25,C  22,C  23)    174.49  0.000886   -0.29    174.20   
   297. D(C  26,O  25,C  22,C  20)    -63.27  0.000466    0.22    -63.05   
   298. D(H  57,C  26,O  25,C  22)    -56.80 -0.000138    0.03    -56.76   
   299. D(C  28,C  26,O  25,C  22)     63.32  0.000112    0.05     63.37   
   300. D(O  27,C  26,O  25,C  22)   -175.85 -0.000204   -0.05   -175.90   
   301. D(H  58,O  27,C  26,H  57)     78.60  0.000621   -0.65     77.96   
   302. D(H  58,O  27,C  26,C  28)    -43.67  0.000814   -0.61    -44.28   
   303. D(H  58,O  27,C  26,O  25)   -163.13  0.000075   -0.32   -163.46   
   304. D(C  19,C  28,C  26,O  25)    -57.92 -0.001554    0.12    -57.81   
   305. D(O  29,C  28,C  19,H  50)     55.37 -0.000746    0.12     55.49   
   306. D(O  29,C  28,C  19,C  20)    173.31 -0.000467    0.13    173.45   
   307. D(O  29,C  28,C  19,O  18)    -64.24 -0.000982    0.26    -63.98   
   308. D(C  26,C  28,C  19,H  50)    -63.71 -0.000347   -0.10    -63.81   
   309. D(C  26,C  28,C  19,C  20)     54.23 -0.000068   -0.09     54.14   
   310. D(C  19,C  28,C  26,O  27)   -175.01  0.000336   -0.15   -175.16   
   311. D(C  26,C  28,C  19,O  18)    176.67 -0.000583    0.04    176.71   
   312. D(O  29,C  28,C  26,H  57)    -59.89 -0.000546   -0.00    -59.89   
   313. D(O  29,C  28,C  26,O  27)     62.99  0.000398   -0.26     62.72   
   314. D(O  29,C  28,C  26,O  25)   -179.93 -0.001492    0.01   -179.92   
   315. D(C  19,C  28,C  26,H  57)     62.12 -0.000608    0.10     62.22   
   316. D(H  60,O  29,C  28,H  59)    -49.77  0.000266   -0.10    -49.88   
   317. D(H  60,O  29,C  28,C  26)   -167.12 -0.000479    0.12   -167.00   
   318. D(H  60,O  29,C  28,C  19)     72.18  0.000400   -0.25     71.93   
   319. D(O  31,C  30,N  13,C   1)   -175.24  0.001059   -0.81   -176.04   
   320. D(C   4,C  30,N  13,C  14)    178.24 -0.000360   -0.77    177.47   
   321. D(C   4,C  30,N  13,C   1)      4.71 -0.000280   -0.32      4.39   
   322. D(O  31,C  30,C   4,C   5)    -66.20  0.000448   -0.33    -66.52   
   323. D(O  31,C  30,C   4,C   2)    176.30  0.000100   -0.46    175.84   
   324. D(N  13,C  30,C   4,H  12)   -123.26  0.001015   -0.63   -123.90   
   325. D(N  13,C  30,C   4,C   5)    113.86  0.001823   -0.82    113.04   
   326. D(O  31,C  30,N  13,C  14)     -1.71  0.000979   -1.26     -2.96   
   327. D(N  13,C  30,C   4,C   2)     -3.65  0.001476   -0.96     -4.61   
    ----------------------------------------------------------------------------

Geometry step timings:
Preparation and reading OPT file:      0.001 s ( 2.406 %)
Internal coordinates            :      0.000 s ( 0.123 %)
B/P matrices and projection     :      0.011 s (30.591 %)
Hessian update/contruction      :      0.007 s (17.905 %)
Making the step                 :      0.015 s (39.563 %)
Converting the step to Cartesian:      0.001 s ( 2.890 %)
Storing new data                :      0.000 s ( 0.788 %)
Checking convergence            :      0.000 s ( 0.126 %)
Final printing                  :      0.002 s ( 5.585 %)
Total time                      :      0.037 s

Time for energy+gradient        :    753.894 s
Time for complete geometry iter :    754.144 s

         *************************************************************
         *                GEOMETRY OPTIMIZATION CYCLE   2            *
         *************************************************************
---------------------------------
CARTESIAN COORDINATES (ANGSTROEM)
---------------------------------
  O     -2.773058    2.684422    1.876498
  C     -2.516598    1.536332    1.677176
  C     -3.487926    0.383557    1.616192
  H     -4.010047    0.326543    2.563961
  C     -2.609585   -0.847901    1.354765
  C     -3.108987   -1.480678    0.015306
  C     -2.344224   -1.036777   -1.205278
  C     -1.684122   -1.835583   -2.020413
  C     -4.570039   -0.990993   -0.030851
  C     -4.506215    0.462570    0.449546
  C     -5.798358    1.128402    0.837969
  C     -7.010251    0.625501    0.691215
  H     -2.680084   -1.579234    2.150615
  N     -1.234087    1.050135    1.496832
  C     -0.033665    1.884922    1.594943
  C      0.152479    2.912167    0.476711
  C      0.013879    2.388934   -0.955799
  C      0.773267    1.110565   -1.267835
  O      2.139335    1.248009   -0.938200
  C      2.874984    0.048025   -0.970070
  C      3.547215   -0.235745    0.367036
  O      2.640287   -0.379276    1.435052
  C      4.437972   -1.477594    0.240362
  C      5.235074   -1.772391    1.502928
  O      4.421939   -2.227265    2.548047
  O      5.374074   -1.277761   -0.796396
  C      4.792726   -1.122392   -2.049296
  O      5.834673   -1.033053   -2.951317
  C      3.936610    0.131352   -2.054064
  O      3.370597    0.244682   -3.335670
  C     -1.196572   -0.316984    1.366094
  O     -0.191424   -0.965584    1.268370
  H     -3.055814   -2.560139    0.077770
  H     -2.357691    0.018566   -1.422830
  H     -1.159871   -1.445031   -2.875616
  H     -1.633702   -2.896751   -1.850493
  H     -5.165287   -1.577585    0.663833
  H     -5.009635   -1.094654   -1.015907
  H     -4.063768    1.067945   -0.339906
  H     -5.689295    2.112718    1.263820
  H     -7.878456    1.182037    0.993456
  H     -7.181062   -0.345649    0.264071
  H      0.803142    1.210363    1.612617
  H     -0.067023    2.391179    2.551574
  H     -0.536824    3.735761    0.616022
  H      1.149655    3.317221    0.612838
  H     -1.033152    2.197362   -1.180523
  H      0.328753    3.173063   -1.638272
  H      0.667581    0.857303   -2.322071
  H      0.368858    0.283207   -0.710189
  H      2.210929   -0.781248   -1.205970
  H      4.177602    0.607766    0.623417
  H      1.826625   -0.807639    1.176770
  H      3.814603   -2.343185    0.015777
  H      5.950019   -2.552720    1.283970
  H      5.791479   -0.883936    1.793743
  H      3.694404   -1.619458    2.621693
  H      4.172311   -1.990993   -2.272425
  H      5.489966   -0.674299   -3.759489
  H      4.586794    0.977685   -1.852959
  H      3.000493    1.111519   -3.428839

----------------------------
CARTESIAN COORDINATES (A.U.)
----------------------------
  NO LB      ZA    FRAG     MASS         X           Y           Z
   0 O     8.0000    0    15.999   -5.240320    5.072822    3.546066
   1 C     6.0000    0    12.011   -4.755681    2.903247    3.169403
   2 C     6.0000    0    12.011   -6.591225    0.724817    3.054160
   3 H     1.0000    0     1.008   -7.577890    0.617076    4.845184
   4 C     6.0000    0    12.011   -4.931402   -1.602300    2.560135
   5 C     6.0000    0    12.011   -5.875133   -2.798076    0.028923
   6 C     6.0000    0    12.011   -4.429942   -1.959224   -2.277645
   7 C     6.0000    0    12.011   -3.182529   -3.468749   -3.818028
   8 C     6.0000    0    12.011   -8.636123   -1.872705   -0.058301
   9 C     6.0000    0    12.011   -8.515513    0.874131    0.849520
  10 C     6.0000    0    12.011  -10.957309    2.132370    1.583531
  11 C     6.0000    0    12.011  -13.247455    1.182026    1.306206
  12 H     1.0000    0     1.008   -5.064624   -2.984319    4.064073
  13 N     7.0000    0    14.007   -2.332086    1.984467    2.828602
  14 C     6.0000    0    12.011   -0.063617    3.561986    3.014006
  15 C     6.0000    0    12.011    0.288144    5.503198    0.900853
  16 C     6.0000    0    12.011    0.026228    4.514431   -1.806199
  17 C     6.0000    0    12.011    1.461264    2.098664   -2.395860
  18 O     8.0000    0    15.999    4.042757    2.358396   -1.772942
  19 C     6.0000    0    12.011    5.432933    0.090754   -1.833166
  20 C     6.0000    0    12.011    6.703265   -0.445493    0.693598
  21 O     8.0000    0    15.999    4.989419   -0.716727    2.711855
  22 C     6.0000    0    12.011    8.386552   -2.792248    0.454218
  23 C     6.0000    0    12.011    9.892856   -3.349333    2.840123
  24 O     8.0000    0    15.999    8.356253   -4.208920    4.815112
  25 O     8.0000    0    15.999   10.155528   -2.414618   -1.504971
  26 C     6.0000    0    12.011    9.056939   -2.121013   -3.872609
  27 O     8.0000    0    15.999   11.025934   -1.952188   -5.577180
  28 C     6.0000    0    12.011    7.439115    0.248220   -3.881619
  29 O     8.0000    0    15.999    6.369505    0.462381   -6.303503
  30 C     6.0000    0    12.011   -2.261193   -0.599014    2.581544
  31 O     8.0000    0    15.999   -0.361740   -1.824688    2.396871
  32 H     1.0000    0     1.008   -5.774652   -4.837962    0.146964
  33 H     1.0000    0     1.008   -4.455391    0.035084   -2.688758
  34 H     1.0000    0     1.008   -2.191838   -2.730712   -5.434128
  35 H     1.0000    0     1.008   -3.087250   -5.474066   -3.496925
  36 H     1.0000    0     1.008   -9.760978   -2.981203    1.254463
  37 H     1.0000    0     1.008   -9.466839   -2.068595   -1.919786
  38 H     1.0000    0     1.008   -7.679408    2.018124   -0.642329
  39 H     1.0000    0     1.008  -10.751210    3.992458    2.388274
  40 H     1.0000    0     1.008  -14.888124    2.233725    1.877360
  41 H     1.0000    0     1.008  -13.570240   -0.653182    0.499022
  42 H     1.0000    0     1.008    1.517719    2.287255    3.047405
  43 H     1.0000    0     1.008   -0.126655    4.518673    4.821776
  44 H     1.0000    0     1.008   -1.014450    7.059565    1.164112
  45 H     1.0000    0     1.008    2.172534    6.268638    1.158095
  46 H     1.0000    0     1.008   -1.952375    4.152412   -2.230866
  47 H     1.0000    0     1.008    0.621253    5.996220   -3.095885
  48 H     1.0000    0     1.008    1.261546    1.620068   -4.388078
  49 H     1.0000    0     1.008    0.697040    0.535183   -1.342062
  50 H     1.0000    0     1.008    4.178050   -1.476345   -2.278953
  51 H     1.0000    0     1.008    7.894524    1.148511    1.178088
  52 H     1.0000    0     1.008    3.451820   -1.526216    2.223773
  53 H     1.0000    0     1.008    7.208555   -4.427977    0.029814
  54 H     1.0000    0     1.008   11.243906   -4.823941    2.426351
  55 H     1.0000    0     1.008   10.944310   -1.670397    3.389684
  56 H     1.0000    0     1.008    6.981412   -3.060332    4.954281
  57 H     1.0000    0     1.008    7.884526   -3.762432   -4.294260
  58 H     1.0000    0     1.008   10.374532   -1.274241   -7.104405
  59 H     1.0000    0     1.008    8.667784    1.847557   -3.501585
  60 H     1.0000    0     1.008    5.670109    2.100467   -6.479567

--------------------------------
INTERNAL COORDINATES (ANGSTROEM)
--------------------------------
 O      0   0   0     0.000000000000     0.00000000     0.00000000
 C      1   0   0     1.193151596784     0.00000000     0.00000000
 C      2   1   0     1.508671204164   127.12871748     0.00000000
 H      3   2   1     1.083571273912   108.36558021   300.95833758
 C      3   2   1     1.535029108386   104.56481701   180.78403159
 C      5   3   2     1.563317399873   106.72928933   239.01361122
 C      6   5   3     1.507227006185   114.36585477    94.81478924
 C      7   6   5     1.318435880844   125.18924859   120.44944056
 C      6   5   3     1.541621787868   101.52739939   334.87045252
 C      9   6   5     1.532220800298   104.62383541    40.92155949
 C     10   9   6     1.504605017132   117.70882729   194.50074766
 C     11  10   9     1.320276227746   126.23055091   353.29419366
 H      5   3   2     1.083140897417   112.28970458   118.89561157
 N      2   1   3     1.383382272157   124.00260629   181.81728151
 C     14   2   1     1.465437945675   123.40073236     3.07004035
 C     15  14   2     1.529812497858   115.67375446   290.73554753
 C     16  15  14     1.531361809222   116.31662117   310.38914568
 C     17  16  15     1.519296888735   115.74591648   312.61343375
 O     18  17  16     1.411980804621   110.71520583   305.80292158
 C     19  18  17     1.407891652181   114.66276480   169.34997460
 C     20  19  18     1.523243852055   111.68525969   237.02879507
 O     21  20  19     1.408466589831   113.60555482    60.85172273
 C     21  20  19     1.533520055100   109.55381885   185.27760036
 C     23  21  20     1.521956439091   113.11299017   175.51129010
 O     24  23  21     1.400133032915   112.20929850    70.49639339
 O     23  21  20     1.411058611050   109.35084694    56.59703291
 C     26  23  21     1.389915206624   113.61962351   296.94893524
 O     27  26  23     1.381041561337   106.28567879   184.10188078
 C     27  26  23     1.518166952653   109.32999824    63.37453217
 O     29  27  26     1.405605775850   107.24906001   180.08134898
 C     14   2   1     1.373868465239   112.79590380   176.22250603
 O     31  14   2     1.200230061236   124.63572849   183.93468220
 H      6   5   3     1.082573355488   109.78394278   216.88481234
 H      7   6   5     1.077616799460   116.46015008   299.63626117
 H      8   7   6     1.076449009155   121.01098600   179.96251486
 H      8   7   6     1.075868311836   121.56142588   358.94087517
 H      9   6   5     1.086736889474   109.17885419   283.74561422
 H      9   6   5     1.083662811545   112.41347261   164.05348960
 H     10   9   6     1.088794734077   108.48505253    73.09459059
 H     11  10   9     1.078017823457   114.78156204   173.98820833
 H     12  11  10     1.074644648220   120.86742819   180.46444868
 H     12  11  10     1.074597769748   122.29808770     0.09417696
 H     15  14   2     1.074982512722   106.33802514   168.56219293
 H     15  14   2     1.082844016788   107.47187282    53.53131700
 H     16  15  14     1.082983155399   109.82697588    74.50501078
 H     16  15  14     1.084877461579   105.71370441   189.09425824
 H     17  16  15     1.087876685822   109.90823736    73.78654768
 H     17  16  15     1.086173372144   108.35273740   189.24130007
 H     18  17  16     1.089369124212   110.23579539   183.82613491
 H     18  17  16     1.076586323335   110.63998506    66.13132087
 H     20  19  18     1.088261197297   109.60623107   357.32588394
 H     21  20  19     1.083802784872   108.62356674   303.24860189
 H     22  21  20     0.955118088397   112.90452223    35.68053768
 H     23  21  20     1.090080302365   109.14043861   296.34269042
 H     24  23  21     1.080741641074   108.55717629   189.17125255
 H     24  23  21     1.087893752647   109.35608711   306.52427426
 H     25  24  23     0.950873026996   107.12730416   310.24495833
 H     27  26  23     1.090490495080   109.47324859   303.23743079
 H     28  27  26     0.949036534595   107.85553611   196.54385784
 H     29  27  26     1.086030200317   107.78065384    61.31537674
 H     30  29  27     0.947135324435   108.71346900   193.00305615

---------------------------
INTERNAL COORDINATES (A.U.)
---------------------------
 O      0   0   0     0.000000000000     0.00000000     0.00000000
 C      1   0   0     2.254729754172     0.00000000     0.00000000
 C      2   1   0     2.850975402002   127.12871748     0.00000000
 H      3   2   1     2.047652954278   108.36558021   300.95833758
 C      3   2   1     2.900784622446   104.56481701   180.78403159
 C      5   3   2     2.954241746153   106.72928933   239.01361122
 C      6   5   3     2.848246263339   114.36585477    94.81478924
 C      7   6   5     2.491482739930   125.18924859   120.44944056
 C      6   5   3     2.913242981157   101.52739939   334.87045252
 C      9   6   5     2.895477689260   104.62383541    40.92155949
 C     10   9   6     2.843291422104   117.70882729   194.50074766
 C     11  10   9     2.494960491566   126.23055091   353.29419366
 H      5   3   2     2.046839660568   112.28970458   118.89561157
 N      2   1   3     2.614213632899   124.00260629   181.81728151
 C     14   2   1     2.769276383581   123.40073236     3.07004035
 C     15  14   2     2.890926657203   115.67375446   290.73554753
 C     16  15  14     2.893854431377   116.31662117   310.38914568
 C     17  16  15     2.871055035827   115.74591648   312.61343375
 O     18  17  16     2.668257027088   110.71520583   305.80292158
 C     19  18  17     2.660529648856   114.66276480   169.34997460
 C     20  19  18     2.878513715563   111.68525969   237.02879507
 O     21  20  19     2.661616123559   113.60555482    60.85172273
 C     21  20  19     2.897932925015   109.55381885   185.27760036
 C     23  21  20     2.876080857641   113.11299017   175.51129010
 O     24  23  21     2.645867983266   112.20929850    70.49639339
 O     23  21  20     2.666514333796   109.35084694    56.59703291
 C     26  23  21     2.626559089892   113.61962351   296.94893524
 O     27  26  23     2.609790330490   106.28567879   184.10188078
 C     27  26  23     2.868919766084   109.32999824    63.37453217
 O     29  27  26     2.656209968615   107.24906001   180.08134898
 C     14   2   1     2.596235143332   112.79590380   176.22250603
 O     31  14   2     2.268106113435   124.63572849   183.93468220
 H      6   5   3     2.045767161752   109.78394278   216.88481234
 H      7   6   5     2.036400628293   116.46015008   299.63626117
 H      8   7   6     2.034193824435   121.01098600   179.96251486
 H      8   7   6     2.033096465534   121.56142588   358.94087517
 H      9   6   5     2.053635100735   109.17885419   283.74561422
 H      9   6   5     2.047825935336   112.41347261   164.05348960
 H     10   9   6     2.057523863461   108.48505253    73.09459059
 H     11  10   9     2.037158453820   114.78156204   173.98820833
 H     12  11  10     2.030784076420   120.86742819   180.46444868
 H     12  11  10     2.030695488946   122.29808770     0.09417696
 H     15  14   2     2.031422547799   106.33802514   168.56219293
 H     15  14   2     2.046278637484   107.47187282    53.53131700
 H     16  15  14     2.046541571354   109.82697588    74.50501078
 H     16  15  14     2.050121291248   105.71370441   189.09425824
 H     17  16  15     2.055789003682   109.90823736    73.78654768
 H     17  16  15     2.052570207311   108.35273740   189.24130007
 H     18  17  16     2.058609303511   110.23579539   183.82613491
 H     18  17  16     2.034453310628   110.63998506    66.13132087
 H     20  19  18     2.056515625065   109.60623107   357.32588394
 H     21  20  19     2.048090446589   108.62356674   303.24860189
 H     22  21  20     1.804911612625   112.90452223    35.68053768
 H     23  21  20     2.059953235451   109.14043861   296.34269042
 H     24  23  21     2.042305723154   108.55717629   189.17125255
 H     24  23  21     2.055821255306   109.35608711   306.52427426
 H     25  24  23     1.796889609155   107.12730416   310.24495833
 H     27  26  23     2.060728387346   109.47324859   303.23743079
 H     28  27  26     1.793419141471   107.85553611   196.54385784
 H     29  27  26     2.052299651767   107.78065384    61.31537674
 H     30  29  27     1.789826374945   108.71346900   193.00305615

------------------------------------------------------------------------------
                   ___                                                        
                  /   \      - P O W E R E D   B Y -                         
                 /     \                                                     
                 |  |  |   _    _      __       _____    __    __             
                 |  |  |  | |  | |    /  \     |  _  \  |  |  /  |          
                  \  \/   | |  | |   /    \    | | | |  |  | /  /          
                 / \  \   | |__| |  /  /\  \   | |_| |  |  |/  /          
                |  |  |   |  __  | /  /__\  \  |    /   |      \           
                |  |  |   | |  | | |   __   |  |    \   |  |\   \          
                \     /   | |  | | |  |  |  |  | |\  \  |  | \   \       
                 \___/    |_|  |_| |__|  |__|  |_| \__\ |__|  \__/        
                                                                              
                      - O R C A' S   B I G   F R I E N D -                    
                                      &                                       
                       - I N T E G R A L  F E E D E R -                       
                                                                              
 v1 FN, 2020, v2 2021, v3 2022-2024                                           
------------------------------------------------------------------------------


----------------------
SHARK INTEGRAL PACKAGE
----------------------

Number of atoms                             ...     61
Number of basis functions                   ...    482
Number of shells                            ...    242
Maximum angular momentum                    ...      2
Integral batch strategy                     ... SHARK/LIBINT Hybrid
RI-J (if used) integral strategy            ... SPLIT-RIJ (Revised 2003 algorithm where possible)
Printlevel                                  ...      1
Contraction scheme used                     ... SEGMENTED contraction
Prescreening option                         ... SCHWARTZ
   Thresh                                   ... 2.500e-11
   Tcut                                     ... 2.500e-12
   Tpresel                                  ... 2.500e-12 
Coulomb Range Separation                    ... NOT USED
Exchange Range Separation                   ... NOT USED
Multipole approximations                    ... NOT USED
Finite Nucleus Model                        ... NOT USED
CABS basis                                  ... NOT available
Auxiliary Coulomb fitting basis             ... NOT available
Auxiliary J/K fitting basis                 ... NOT available
Auxiliary Correlation fitting basis         ... NOT available
Auxiliary 'external' fitting basis          ... NOT available

Checking pre-screening integrals            ... done (  0.0 sec) Dimension = 242
Check shell pair data                       ... done (  0.0 sec)
Shell pair information
Shell pair cut-off parameter TPreSel        ...   2.5e-12
Total number of shell pairs                 ...     29403
Shell pairs after pre-screening             ...     18782
Total number of primitive shell pairs       ...    165748
Primitive shell pairs kept                  ...     55774
          la=0 lb=0:   7159 shell pairs
          la=1 lb=0:   6283 shell pairs
          la=1 lb=1:   1391 shell pairs
          la=2 lb=0:   2537 shell pairs
          la=2 lb=1:   1172 shell pairs
          la=2 lb=2:    240 shell pairs

Calculating one electron integrals          ... done (  0.2 sec)
Calculating Nuclear repulsion               ... done (  0.0 sec) ENN=   3262.287847427328 Eh

Diagonalization of the overlap matrix:
Smallest eigenvalue                        ... 1.130e-03
Time for diagonalization                   ...    0.022 sec
Threshold for overlap eigenvalues          ... 1.000e-07
Number of eigenvalues below threshold      ... 0
Time for construction of square roots      ...    0.011 sec
Total time needed                          ...    0.035 sec

-------------------
DFT GRID GENERATION
-------------------

General Integration Accuracy     IntAcc      ... 4.388
Radial Grid Type                 RadialGrid  ... OptM3 with GC (2021)
Angular Grid (max. ang.)         AngularGrid ... 4 (Lebedev-302)
Angular grid pruning method      GridPruning ... 4 (adaptive)
Weight generation scheme         WeightScheme... mBecke (2022)
Basis function cutoff            BFCut       ... 1.0000e-11
Integration weight cutoff        WCut        ... 1.0000e-14
Partially contracted basis set               ... off
Rotationally invariant grid construction     ... off
Angular grids for H and He will be reduced by one unit

Total number of grid points                  ...   275799
Total number of batches                      ...     4340
Average number of points per batch           ...       63
Average number of grid points per atom       ...     4521
Initializing property integral containers    ... done (  0.0 sec)

SHARK setup successfully completed in   4.6 seconds

Maximum memory used throughout the entire STARTUP-calculation: 122.6 MB
Occupation numbers will be reassigned to an Aufbau configuration
             **** ENERGY FILE WAS UPDATED (monomer_hf_opt.en.tmp) ****
Finished Guess after   0.2 sec
Maximum memory used throughout the entire GUESS-calculation: 47.1 MB
----------------------------------------D-I-I-S--------------------------------------------
Iteration    Energy (Eh)           Delta-E    RMSDP     MaxDP     DIISErr   Damp  Time(sec)
-------------------------------------------------------------------------------------------
               ***  Starting incremental Fock matrix formation  ***
    1    -1466.5391691371346496     0.00e+00  1.73e-04  6.46e-03  4.67e-02  0.700  53.0
    2    -1466.5489066224222370    -9.74e-03  1.58e-04  5.98e-03  3.89e-02  0.700  42.7
                               ***Turning on AO-DIIS***
    3    -1466.5570888638380893    -8.18e-03  1.60e-04  6.17e-03  3.16e-02  0.700  42.2
    4    -1466.5636275737347205    -6.54e-03  4.54e-04  1.70e-02  2.39e-02  0.000  42.0
                              *** Initializing SOSCF ***
---------------------------------------S-O-S-C-F--------------------------------------
Iteration    Energy (Eh)           Delta-E    RMSDP     MaxDP     MaxGrad    Time(sec)
--------------------------------------------------------------------------------------
    5    -1466.5837482106603602    -2.01e-02  6.42e-05  2.31e-03  3.01e-03    44.7
               *** Restarting incremental Fock matrix formation ***
    6    -1466.5839079389502331    -1.60e-04  3.30e-05  1.17e-03  6.61e-04    53.1
    7    -1466.5839475338857483    -3.96e-05  3.02e-05  1.23e-03  3.45e-04    36.6
    8    -1466.5839606239310342    -1.31e-05  7.36e-06  3.30e-04  8.18e-05    36.2
    9    -1466.5839614469964545    -8.23e-07  2.71e-06  1.19e-04  4.81e-05    32.2
   10    -1466.5839617051492496    -2.58e-07  1.44e-06  1.05e-04  3.52e-05    29.2
   11    -1466.5839617423830532    -3.72e-08  8.13e-07  7.53e-05  1.65e-05    27.0
   12    -1466.5839617488795739    -6.50e-09  2.64e-07  9.88e-06  2.94e-06    24.4
                 **** Energy Check signals convergence ****

               *****************************************************
               *                     SUCCESS                       *
               *           SCF CONVERGED AFTER  12 CYCLES          *
               *****************************************************

             **** ENERGY FILE WAS UPDATED (monomer_hf_opt.en.tmp) ****

----------------
TOTAL SCF ENERGY
----------------

Total Energy       :      -1466.58396174887957 Eh          -39907.77847 eV

Components:
Nuclear Repulsion  :       3262.28784742732796 Eh           88771.36538 eV
Electronic Energy  :      -4728.87180917620753 Eh         -128679.14385 eV
One Electron Energy:      -8499.10947248070806 Eh         -231272.52641 eV
Two Electron Energy:       3770.23766330450053 Eh          102593.38257 eV

Virial components:
Potential Energy   :      -2933.26044241023283 Eh          -79818.07451 eV
Kinetic Energy     :       1466.67648066135348 Eh           39910.29604 eV
Virial Ratio       :          1.99993691934541

---------------
SCF CONVERGENCE
---------------

  Last Energy change         ...    6.4965e-09  Tolerance :   1.0000e-08
  Last MAX-Density change    ...    9.8755e-06  Tolerance :   1.0000e-07
  Last RMS-Density change    ...    2.6379e-07  Tolerance :   5.0000e-09
  Last DIIS Error            ...    3.0129e-03  Tolerance :   5.0000e-07
  Last Orbital Gradient      ...    2.9449e-06  Tolerance :   1.0000e-05
  Last Orbital Rotation      ...    1.0746e-05  Tolerance :   1.0000e-05


Total SCF time: 0 days 0 hours 7 min 43 sec 
Finished LeanSCF after 463.6 sec

Maximum memory used throughout the entire LEANSCF-calculation: 49.1 MB

-------------------------   --------------------
FINAL SINGLE POINT ENERGY     -1466.583961748880
-------------------------   --------------------

------------------------------------------------------------------------------
                         ORCA SCF GRADIENT CALCULATION
------------------------------------------------------------------------------

Nuc. rep. gradient        (SHARK) ... done (  0.0 sec)
HCore & Overlap gradient  (SHARK) ... done (  3.0 sec)
Two-electron gradient     (SHARK) ... done (184.2 sec)

------------------
CARTESIAN GRADIENT
------------------

   1   O   :    0.000159308    0.004377141    0.003053151
   2   C   :   -0.002531551   -0.008387748   -0.006462368
   3   C   :    0.001654843    0.000756135    0.000725415
   4   H   :   -0.000595449   -0.000574128   -0.000157700
   5   C   :    0.001512927    0.001909278   -0.000819190
   6   C   :   -0.000686971    0.000025288   -0.000726340
   7   C   :   -0.000716836   -0.000090794    0.000590648
   8   C   :    0.000211923   -0.000786440   -0.001429712
   9   C   :    0.000741792    0.000815521   -0.000067212
  10   C   :   -0.000767008   -0.001277852   -0.000143461
  11   C   :    0.003222479    0.000626118   -0.000346412
  12   C   :   -0.003146829   -0.000905398   -0.000187376
  13   H   :    0.000670117    0.000643609    0.000765993
  14   N   :    0.002346208    0.001849620    0.001599002
  15   C   :   -0.000619065    0.000572109   -0.001845493
  16   C   :   -0.000053767   -0.000966680   -0.000829535
  17   C   :   -0.000109285   -0.000008461    0.001265311
  18   C   :   -0.004493246    0.001182044   -0.000859809
  19   O   :    0.001419958    0.002497258    0.002514436
  20   C   :    0.001831895   -0.002287212   -0.000241134
  21   C   :    0.001660678   -0.000272686   -0.004172511
  22   O   :   -0.000120478   -0.000583056    0.004416527
  23   C   :   -0.003281309   -0.000157215    0.003872461
  24   C   :    0.000692057    0.002243929   -0.004183016
  25   O   :   -0.000976476   -0.002097596    0.004251635
  26   O   :    0.006123909   -0.000350832    0.000347082
  27   C   :   -0.007563882    0.002014487   -0.001334250
  28   O   :    0.002854034   -0.000660842   -0.002035822
  29   C   :    0.000291896   -0.000903513    0.001327459
  30   O   :   -0.001020584    0.000248021   -0.001335219
  31   C   :   -0.008990714    0.000380211    0.003268821
  32   O   :    0.007051025    0.000141203   -0.001514503
  33   H   :    0.000040953   -0.000061775    0.000090257
  34   H   :    0.000104998   -0.000518873    0.000661281
  35   H   :    0.001086586    0.002057766    0.000117241
  36   H   :   -0.000754575    0.000388997    0.001154687
  37   H   :    0.000266243   -0.000067380    0.000187820
  38   H   :   -0.000079794    0.000080868    0.000000194
  39   H   :    0.000801455    0.000052847   -0.000075751
  40   H   :   -0.000865191    0.000010775    0.000139293
  41   H   :    0.000534675    0.000361742    0.000177435
  42   H   :    0.001354012    0.000329097    0.000010116
  43   H   :   -0.000231947    0.000935450   -0.000623886
  44   H   :    0.000443206   -0.001065721    0.000934945
  45   H   :    0.001221408    0.000457620    0.000423807
  46   H   :   -0.000221122    0.000433743    0.000250392
  47   H   :   -0.000079677   -0.000558867    0.000047083
  48   H   :   -0.000341095   -0.000154367   -0.000384226
  49   H   :   -0.000444635   -0.002126407   -0.000449216
  50   H   :    0.001848069    0.000528339   -0.000256972
  51   H   :    0.000197003   -0.000305062    0.000567306
  52   H   :    0.000460280   -0.000096837   -0.000183960
  53   H   :   -0.002125374   -0.001779048   -0.001237244
  54   H   :   -0.000229009    0.000407442   -0.000594374
  55   H   :   -0.000075355    0.000003400    0.000184401
  56   H   :   -0.000393462   -0.000257993    0.000558443
  57   H   :   -0.000376678    0.001303778   -0.002945201
  58   H   :    0.000508675   -0.000007044    0.000498411
  59   H   :    0.000184343    0.000182166    0.001208617
  60   H   :   -0.000317060    0.000309448   -0.000068213
  61   H   :    0.000711471   -0.000815626    0.000300437

Difference to translation invariance:
           :   -0.0000000000   -0.0000000000    0.0000000000

Difference to rotation invariance:
           :    0.0000062238   -0.0000068938    0.0000087710

Norm of the Cartesian gradient     ...    0.0260965496
RMS gradient                       ...    0.0019291125
MAX gradient                       ...    0.0089907137

-------
TIMINGS
-------

Total SCF gradient time     ....      187.285 sec

Densities                   ....       0.005 sec  (  0.0%)
One electron gradient       ....       3.039 sec  (  1.6%)
Two electron gradient       ....     184.241 sec  ( 98.4%)

Maximum memory used throughout the entire SCFGRAD-calculation: 108.0 MB
------------------------------------------------------------------------------
                         ORCA GEOMETRY RELAXATION STEP
------------------------------------------------------------------------------

Reading the OPT-File                    .... done
Getting information on internals        .... done
Copying old internal coords+grads       .... done
Making the new internal coordinates     .... (2022 redundants) done
Validating the new internal coordinates .... (2022 redundants) done
Calculating the B-matrix                .... done
Calculating the G,G- and P matrices     .... done
Transforming gradient to internals      .... done
Projecting the internal gradient        .... done
Number of atoms                         ....  61
Number of internal coordinates          .... 327
Current Energy                          .... -1466.583961749 Eh
Current gradient norm                   ....     0.026096550 Eh/bohr
Maximum allowed component of the step   ....  0.300
Current trust radius                    ....  0.300
Updating the Hessian (BFGS)             .... done
Forming the augmented Hessian           .... done
Diagonalizing the augmented Hessian     .... done
Last element of RFO vector              ....  0.896914786
Lowest eigenvalues of augmented Hessian:
 -0.002936311  0.001386879  0.012082643  0.012344343  0.012589350
Length of the computed step             ....  0.493027242
Warning: the length of the step is outside the trust region - taking restricted step instead
The input lambda is                     ....    -0.000165
   iter:   5  x=   -0.005754  g=   46.326388 f(x)=     0.078397
   iter:  10  x=   -0.007220  g=   13.292372 f(x)=     0.000000
The output lambda is                    ....    -0.007220 (11 iterations)
The final length of the internal step   ....  0.300000000
Converting the step to Cartesian space:
 Initial RMS(Int)=    0.0165900379
Transforming coordinates:
 Iter   0:  RMS(Cart)=    0.1102386215 RMS(Int)=    0.3459163793
 Iter   5:  RMS(Cart)=    0.0000000264 RMS(Int)=    0.0000000052
done
Storing new coordinates                 .... done
The predicted energy change is          ....    -0.001488466
Previously predicted energy change      ....    -0.006948140
Actually observed energy change         ....    -0.006602531
Ratio of predicted to observed change   ....     0.950258802
New trust radius                        ....     0.450000000

                                .--------------------.
          ----------------------|Geometry convergence|-------------------------
          Item                value                   Tolerance       Converged
          ---------------------------------------------------------------------
          Energy change      -0.0066025315            0.0000050000      NO
          RMS gradient        0.0009583527            0.0001000000      NO
          MAX gradient        0.0046876523            0.0003000000      NO
          RMS step            0.0165900379            0.0020000000      NO
          MAX step            0.1935284047            0.0040000000      NO
          ........................................................
          Max(Bonds)      0.1024      Max(Angles)    0.79
          Max(Dihed)        3.26      Max(Improp)    0.00
          ---------------------------------------------------------------------

The optimization has not yet converged - more geometry cycles are needed


    ---------------------------------------------------------------------------
                         Redundant Internal Coordinates
                            (Angstroem and degrees)

        Definition                    Value    dE/dq     Step     New-Value
    ----------------------------------------------------------------------------
     1. B(C   1,O   0)                1.1932  0.004688 -0.0043    1.1889   
     2. B(C   2,C   1)                1.5087 -0.002337  0.0041    1.5127   
     3. B(H   3,C   2)                1.0836  0.000179 -0.0007    1.0829   
     4. B(C   4,C   2)                1.5350 -0.001349  0.0025    1.5375   
     5. B(C   5,C   4)                1.5633  0.000685  0.0000    1.5634   
     6. B(C   6,C   5)                1.5072 -0.001317  0.0030    1.5102   
     7. B(C   7,C   6)                1.3184 -0.000135 -0.0003    1.3182   
     8. B(C   8,C   5)                1.5416 -0.001163  0.0030    1.5446   
     9. B(C   9,C   8)                1.5322 -0.001130  0.0033    1.5356   
    10. B(C   9,C   2)                1.5506 -0.000641  0.0024    1.5529   
    11. B(C  10,C   9)                1.5046 -0.000810  0.0024    1.5070   
    12. B(C  11,C  10)                1.3203  0.001237 -0.0013    1.3190   
    13. B(H  12,C   4)                1.0831  0.000085 -0.0005    1.0827   
    14. B(N  13,C   1)                1.3834 -0.000335  0.0006    1.3840   
    15. B(C  14,N  13)                1.4654  0.000266  0.0012    1.4666   
    16. B(C  15,C  14)                1.5298 -0.001377  0.0036    1.5334   
    17. B(C  16,C  15)                1.5314 -0.000932  0.0026    1.5339   
    18. B(C  17,C  16)                1.5193  0.000457  0.0009    1.5202   
    19. B(O  18,C  17)                1.4120  0.002882 -0.0042    1.4078   
    20. B(C  19,O  18)                1.4079  0.003836 -0.0045    1.4034   
    21. B(C  20,C  19)                1.5232 -0.000942  0.0023    1.5256   
    22. B(O  21,C  20)                1.4085  0.002221 -0.0035    1.4050   
    23. B(C  22,C  20)                1.5335 -0.000841  0.0030    1.5366   
    24. B(C  23,C  22)                1.5220 -0.000902  0.0031    1.5250   
    25. B(O  24,C  23)                1.4001  0.002663 -0.0041    1.3960   
    26. B(O  25,C  22)                1.4111  0.002887 -0.0036    1.4075   
    27. B(C  26,O  25)                1.3899  0.002923 -0.0040    1.3859   
    28. B(O  27,C  26)                1.3810  0.002622 -0.0041    1.3769   
    29. B(C  28,C  26)                1.5182 -0.001492  0.0025    1.5206   
    30. B(C  28,C  19)                1.5196 -0.000931  0.0013    1.5209   
    31. B(O  29,C  28)                1.4056  0.000969 -0.0017    1.4039   
    32. B(C  30,N  13)                1.3739 -0.001165  0.0012    1.3751   
    33. B(C  30,C   4)                1.5095 -0.002053  0.0041    1.5136   
    34. B(O  31,C  30)                1.2002  0.004153 -0.0038    1.1964   
    35. B(H  32,C   5)                1.0826  0.000069 -0.0005    1.0821   
    36. B(H  33,C   6)                1.0776 -0.000643  0.0002    1.0778   
    37. B(H  34,C   7)                1.0764  0.000399 -0.0012    1.0752   
    38. B(H  35,C   7)                1.0759 -0.000237 -0.0004    1.0755   
    39. B(H  36,C   8)                1.0867  0.000011 -0.0004    1.0864   
    40. B(H  37,C   8)                1.0837  0.000024 -0.0004    1.0833   
    41. B(H  38,C   9)                1.0888  0.000410 -0.0011    1.0877   
    42. B(H  39,C  10)                1.0780 -0.000023 -0.0006    1.0774   
    43. B(H  40,C  11)                1.0746 -0.000195 -0.0004    1.0743   
    44. B(H  41,C  11)                1.0746 -0.000517  0.0000    1.0746   
    45. B(H  42,C  14)                1.0750 -0.000778  0.0004    1.0754   
    46. B(H  43,C  14)                1.0828  0.000314 -0.0010    1.0818   
    47. B(H  44,C  15)                1.0830 -0.000375  0.0002    1.0832   
    48. B(H  45,C  15)                1.0849 -0.000010 -0.0004    1.0845   
    49. B(H  46,C  16)                1.0879  0.000165 -0.0006    1.0873   
    50. B(H  47,C  16)                1.0862  0.000031 -0.0004    1.0858   
    51. B(H  48,C  17)                1.0894  0.000211 -0.0008    1.0886   
    52. B(H  48,H  34)                2.9911 -0.001824  0.1024    3.0935   
    53. B(H  49,C  17)                1.0766 -0.001233  0.0008    1.0773   
    54. B(H  50,C  19)                1.0883 -0.000011 -0.0007    1.0876   
    55. B(H  51,C  20)                1.0838  0.000149 -0.0010    1.0828   
    56. B(H  52,O  21)                0.9551  0.000973 -0.0030    0.9521   
    57. B(H  52,O  31)                2.0263 -0.002262  0.0583    2.0846   
    58. B(H  53,C  22)                1.0901 -0.000070 -0.0005    1.0896   
    59. B(H  54,C  23)                1.0807 -0.000090 -0.0005    1.0802   
    60. B(H  55,C  23)                1.0879 -0.000263 -0.0001    1.0878   
    61. B(H  56,O  24)                0.9509 -0.000541 -0.0017    0.9491   
    62. B(H  56,O  21)                2.0143 -0.001917  0.0365    2.0508   
    63. B(H  57,C  26)                1.0905 -0.000386 -0.0001    1.0904   
    64. B(H  58,O  27)                0.9490 -0.000953 -0.0006    0.9485   
    65. B(H  58,O  29)                2.3486  0.000232 -0.0018    2.3468   
    66. B(H  59,C  28)                1.0860  0.000039 -0.0007    1.0853   
    67. B(H  60,O  29)                0.9471 -0.001054 -0.0005    0.9467   
    68. A(O   0,C   1,N  13)          124.00 -0.001633    0.24    124.25   
    69. A(O   0,C   1,C   2)          127.13  0.000532   -0.13    127.00   
    70. A(C   2,C   1,N  13)          108.85  0.001065   -0.12    108.73   
    71. A(C   1,C   2,H   3)          108.37  0.000164   -0.22    108.14   
    72. A(H   3,C   2,C   4)          112.49 -0.000094    0.03    112.52   
    73. A(H   3,C   2,C   9)          110.14 -0.000034   -0.14    110.00   
    74. A(C   1,C   2,C   9)          114.48 -0.000282    0.33    114.80   
    75. A(C   4,C   2,C   9)          106.77  0.000414    0.05    106.82   
    76. A(C   1,C   2,C   4)          104.56 -0.000180   -0.03    104.54   
    77. A(H  12,C   4,C  30)          107.03 -0.000448    0.12    107.15   
    78. A(C   2,C   4,H  12)          112.29 -0.000152    0.11    112.40   
    79. A(C   5,C   4,C  30)          116.60  0.001067   -0.16    116.45   
    80. A(C   2,C   4,C   5)          106.73 -0.000486    0.09    106.82   
    81. A(C   2,C   4,C  30)          104.61 -0.000344    0.04    104.65   
    82. A(C   5,C   4,H  12)          109.60  0.000328   -0.19    109.42   
    83. A(C   6,C   5,C   8)          111.29 -0.000823    0.26    111.55   
    84. A(C   4,C   5,C   8)          101.53  0.000014   -0.00    101.53   
    85. A(C   6,C   5,H  32)          108.39  0.000099   -0.12    108.26   
    86. A(C   4,C   5,H  32)          109.78 -0.000028   -0.09    109.69   
    87. A(C   4,C   5,C   6)          114.37  0.000696    0.02    114.38   
    88. A(C   8,C   5,H  32)          111.41  0.000036   -0.05    111.36   
    89. A(C   5,C   6,C   7)          125.19 -0.000353    0.09    125.28   
    90. A(C   5,C   6,H  33)          116.46 -0.000221    0.04    116.50   
    91. A(C   7,C   6,H  33)          118.35  0.000571   -0.13    118.21   
    92. A(C   6,C   7,H  35)          121.56 -0.001535    0.31    121.87   
    93. A(C   6,C   7,H  34)          121.01  0.000198   -0.00    121.01   
    94. A(H  34,C   7,H  35)          117.42  0.001337   -0.31    117.11   
    95. A(C   9,C   8,H  36)          109.54 -0.000158   -0.04    109.50   
    96. A(C   5,C   8,H  36)          109.18  0.000019    0.01    109.19   
    97. A(H  36,C   8,H  37)          107.89  0.000228   -0.09    107.81   
    98. A(C   5,C   8,C   9)          104.62  0.000147    0.11    104.73   
    99. A(C   5,C   8,H  37)          112.41 -0.000121   -0.01    112.41   
   100. A(C   9,C   8,H  37)          113.12 -0.000124    0.02    113.14   
   101. A(C   2,C   9,C  10)          113.10  0.000192   -0.09    113.01   
   102. A(C  10,C   9,H  38)          106.86  0.000793   -0.17    106.69   
   103. A(C   2,C   9,C   8)          102.41 -0.000166    0.06    102.47   
   104. A(C   8,C   9,H  38)          108.49 -0.000088   -0.01    108.48   
   105. A(C   2,C   9,H  38)          107.88 -0.000697    0.19    108.07   
   106. A(C   8,C   9,C  10)          117.71 -0.000156    0.05    117.76   
   107. A(C   9,C  10,H  39)          114.78  0.001367   -0.29    114.49   
   108. A(C  11,C  10,H  39)          118.98 -0.000414    0.06    119.04   
   109. A(C   9,C  10,C  11)          126.23 -0.000954    0.23    126.46   
   110. A(H  40,C  11,H  41)          116.83  0.001308   -0.31    116.53   
   111. A(C  10,C  11,H  41)          122.30 -0.001318    0.29    122.59   
   112. A(C  10,C  11,H  40)          120.87  0.000010    0.02    120.88   
   113. A(C   1,N  13,C  30)          112.80 -0.001815    0.27    113.06   
   114. A(C   1,N  13,C  14)          123.40  0.002580   -0.55    122.85   
   115. A(C  14,N  13,C  30)          123.43 -0.000760    0.21    123.63   
   116. A(N  13,C  14,C  15)          115.67  0.000183    0.13    115.80   
   117. A(H  42,C  14,H  43)          107.63 -0.000471    0.13    107.75   
   118. A(C  15,C  14,H  43)          109.61  0.001199   -0.53    109.07   
   119. A(N  13,C  14,H  43)          107.47 -0.000443   -0.27    107.20   
   120. A(C  15,C  14,H  42)          109.80 -0.000793    0.34    110.14   
   121. A(N  13,C  14,H  42)          106.34  0.000247    0.22    106.56   
   122. A(H  44,C  15,H  45)          106.56 -0.000955    0.10    106.66   
   123. A(C  14,C  15,C  16)          116.32 -0.001958    0.58    116.89   
   124. A(C  16,C  15,H  45)          109.16  0.000843   -0.23    108.92   
   125. A(C  14,C  15,H  45)          105.71  0.000835   -0.14    105.58   
   126. A(C  16,C  15,H  44)          108.82  0.001086   -0.18    108.64   
   127. A(C  14,C  15,H  44)          109.83  0.000179   -0.16    109.66   
   128. A(C  17,C  16,H  47)          109.48 -0.000305   -0.02    109.46   
   129. A(H  46,C  16,H  47)          106.04 -0.000296    0.05    106.09   
   130. A(C  15,C  16,H  47)          108.35 -0.000122   -0.12    108.24   
   131. A(C  17,C  16,H  46)          106.89 -0.000366    0.24    107.12   
   132. A(C  15,C  16,H  46)          109.91 -0.000566    0.07    109.98   
   133. A(C  15,C  16,C  17)          115.75  0.001505   -0.20    115.54   
   134. A(C  16,C  17,O  18)          110.72  0.002432   -0.54    110.17   
   135. A(O  18,C  17,H  49)          108.50 -0.002259    0.46    108.96   
   136. A(C  16,C  17,H  49)          110.64  0.001212   -0.26    110.38   
   137. A(O  18,C  17,H  48)          110.02 -0.001256    0.22    110.24   
   138. A(C  16,C  17,H  48)          110.24 -0.000436    0.04    110.28   
   139. A(H  48,C  17,H  49)          106.63  0.000173    0.12    106.75   
   140. A(C  17,O  18,C  19)          114.66 -0.001286    0.45    115.11   
   141. A(O  18,C  19,C  20)          111.69  0.001396   -0.25    111.43   
   142. A(C  28,C  19,H  50)          108.27 -0.000097    0.05    108.32   
   143. A(C  20,C  19,H  50)          108.52 -0.000864    0.24    108.76   
   144. A(O  18,C  19,H  50)          109.61  0.000452   -0.13    109.48   
   145. A(C  20,C  19,C  28)          109.15  0.000317   -0.16    109.00   
   146. A(O  18,C  19,C  28)          109.54 -0.001239    0.25    109.79   
   147. A(O  21,C  20,C  22)          110.74 -0.000939    0.54    111.28   
   148. A(C  19,C  20,C  22)          109.55  0.000967   -0.23    109.32   
   149. A(C  19,C  20,O  21)          113.61 -0.000400    0.07    113.68   
   150. A(O  21,C  20,H  51)          105.93  0.000494   -0.25    105.68   
   151. A(C  19,C  20,H  51)          108.62 -0.000094   -0.08    108.55   
   152. A(C  22,C  20,H  51)          108.18 -0.000024   -0.06    108.11   
   153. A(C  20,O  21,H  52)          112.90 -0.002572    0.52    113.43   
   154. A(O  25,C  22,H  53)          109.90 -0.000521    0.16    110.06   
   155. A(C  23,C  22,H  53)          108.46  0.000829   -0.21    108.25   
   156. A(C  20,C  22,H  53)          109.14 -0.000328    0.07    109.21   
   157. A(C  23,C  22,O  25)          106.83 -0.000450   -0.12    106.70   
   158. A(C  20,C  22,O  25)          109.35 -0.000199   -0.11    109.24   
   159. A(C  20,C  22,C  23)          113.11  0.000645    0.21    113.33   
   160. A(H  54,C  23,H  55)          107.79  0.000585   -0.17    107.61   
   161. A(C  22,C  23,H  55)          109.36  0.000185   -0.00    109.35   
   162. A(O  24,C  23,H  54)          107.51 -0.000532   -0.04    107.47   
   163. A(C  22,C  23,H  54)          108.56  0.000506   -0.22    108.33   
   164. A(O  24,C  23,H  55)          111.27 -0.001022    0.20    111.47   
   165. A(C  22,C  23,O  24)          112.21  0.000320    0.22    112.42   
   166. A(C  23,O  24,H  56)          107.13 -0.003008    0.68    107.81   
   167. A(C  22,O  25,C  26)          113.62 -0.002463    0.79    114.41   
   168. A(C  28,C  26,H  57)          109.65 -0.000049   -0.07    109.59   
   169. A(O  27,C  26,H  57)          110.31  0.000174   -0.05    110.26   
   170. A(O  25,C  26,H  57)          109.47 -0.000075    0.10    109.57   
   171. A(O  27,C  26,C  28)          111.71  0.000432   -0.16    111.56   
   172. A(O  25,C  26,C  28)          109.33  0.001038   -0.24    109.09   
   173. A(O  25,C  26,O  27)          106.29 -0.001551    0.43    106.72   
   174. A(C  26,O  27,H  58)          107.86 -0.000991    0.11    107.97   
   175. A(O  29,C  28,H  59)          110.31 -0.000266    0.04    110.34   
   176. A(C  26,C  28,H  59)          107.78  0.000543   -0.12    107.66   
   177. A(C  19,C  28,H  59)          109.20 -0.000020    0.03    109.23   
   178. A(C  26,C  28,O  29)          107.25 -0.000469    0.16    107.41   
   179. A(C  19,C  28,O  29)          111.93  0.000153    0.01    111.94   
   180. A(C  19,C  28,C  26)          110.27  0.000071   -0.11    110.16   
   181. A(C  28,O  29,H  60)          108.71 -0.000544    0.08    108.79   
   182. A(N  13,C  30,O  31)          124.64 -0.003469    0.53    125.16   
   183. A(C   4,C  30,O  31)          126.39  0.002199   -0.34    126.04   
   184. A(C   4,C  30,N  13)          108.97  0.001264   -0.19    108.79   
   185. D(C   9,C   2,C   1,O   0)     64.31  0.000719   -2.26     62.05   
   186. D(H   3,C   2,C   1,N  13)    119.37 -0.000589   -0.05    119.32   
   187. D(H   3,C   2,C   1,O   0)    -59.04  0.000835   -2.14    -61.18   
   188. D(C   4,C   2,C   1,N  13)     -0.81 -0.000464    0.04     -0.77   
   189. D(C   4,C   2,C   1,O   0)   -179.22  0.000960   -2.05   -181.27   
   190. D(C   5,C   4,C   2,H   3)    121.63 -0.000469    0.44    122.08   
   191. D(H  12,C   4,C   2,H   3)      1.52 -0.000468    0.55      2.06   
   192. D(C   5,C   4,C   2,C   1)   -120.99 -0.000430    0.18   -120.81   
   193. D(H  12,C   4,C   2,C   1)    118.90 -0.000429    0.28    119.18   
   194. D(H  12,C   4,C   2,C   9)   -119.41 -0.000644    0.67   -118.75   
   195. D(C   5,C   4,C   2,C   9)      0.71 -0.000645    0.56      1.27   
   196. D(C   6,C   5,C   4,C  30)    -21.61  0.000001    0.04    -21.57   
   197. D(C   8,C   5,C   4,C  30)   -141.56  0.000638   -0.28   -141.83   
   198. D(C   8,C   5,C   4,C   2)    -25.13  0.000483   -0.25    -25.38   
   199. D(C   6,C   5,C   4,C   2)     94.81 -0.000154    0.07     94.88   
   200. D(C   6,C   5,C   4,H  12)   -143.35 -0.000443    0.15   -143.21   
   201. D(C   8,C   5,C   4,H  12)     96.70  0.000194   -0.17     96.53   
   202. D(C   7,C   6,C   5,C   8)   -125.22  0.000519   -0.96   -126.18   
   203. D(H  33,C   6,C   5,C   4)    -60.36  0.000439   -1.16    -61.53   
   204. D(C   7,C   6,C   5,C   4)    120.45  0.000615   -1.14    119.31   
   205. D(C   7,C   6,C   5,H  32)     -2.38  0.000098   -0.94     -3.32   
   206. D(H  33,C   6,C   5,C   8)     53.96  0.000343   -0.99     52.98   
   207. D(H  35,C   7,C   6,C   5)     -1.06 -0.000150    0.05     -1.01   
   208. D(H  34,C   7,C   6,H  33)      0.79  0.000040   -0.05      0.74   
   209. D(H  34,C   7,C   6,C   5)    179.96 -0.000145   -0.08    179.88   
   210. D(H  35,C   7,C   6,H  33)    179.77  0.000035    0.08    179.85   
   211. D(H  36,C   8,C   5,C   4)    -76.25  0.000053   -0.17    -76.43   
   212. D(H  36,C   8,C   5,C   6)    161.65 -0.000376   -0.32    161.33   
   213. D(C   9,C   8,C   5,H  32)    157.73 -0.000054   -0.29    157.44   
   214. D(C   9,C   8,C   5,C   6)    -81.18 -0.000473   -0.30    -81.48   
   215. D(C   9,C   8,C   5,C   4)     40.92 -0.000044   -0.16     40.77   
   216. D(H  36,C   8,C   5,H  32)     40.55  0.000043   -0.30     40.25   
   217. D(C  10,C   9,C   8,H  37)     71.83 -0.000209    0.48     72.31   
   218. D(C  10,C   9,C   8,C   5)   -165.50 -0.000331    0.55   -164.95   
   219. D(C   2,C   9,C   8,H  37)   -163.47 -0.000190    0.44   -163.03   
   220. D(C   2,C   9,C   8,H  36)     76.13 -0.000288    0.56     76.69   
   221. D(C   2,C   9,C   8,C   5)    -40.80 -0.000313    0.51    -40.29   
   222. D(C  10,C   9,C   2,C   4)    151.94  0.000330   -0.61    151.33   
   223. D(C  10,C   9,C   2,C   1)    -92.86  0.000220   -0.44    -93.30   
   224. D(C   8,C   9,C   2,C   4)     24.25  0.000525   -0.65     23.59   
   225. D(C   8,C   9,C   2,H   3)    -98.17  0.000401   -0.64    -98.81   
   226. D(C  10,C   9,C   8,H  36)    -48.57 -0.000306    0.60    -47.97   
   227. D(C   8,C   9,C   2,C   1)    139.44  0.000416   -0.48    138.96   
   228. D(C  10,C   9,C   2,H   3)     29.53  0.000205   -0.60     28.93   
   229. D(H  39,C  10,C   9,C   8)    173.99 -0.000195    0.22    174.21   
   230. D(H  39,C  10,C   9,C   2)     54.79 -0.000006    0.18     54.96   
   231. D(C  11,C  10,C   9,H  38)    115.53  0.000220    0.01    115.55   
   232. D(C  11,C  10,C   9,C   8)     -6.71 -0.000201    0.13     -6.58   
   233. D(C  11,C  10,C   9,C   2)   -125.91 -0.000012    0.08   -125.82   
   234. D(H  41,C  11,C  10,H  39)    179.37 -0.000039   -0.01    179.36   
   235. D(H  41,C  11,C  10,C   9)      0.09 -0.000044    0.09      0.18   
   236. D(H  40,C  11,C  10,H  39)     -0.26 -0.000034   -0.00     -0.26   
   237. D(H  40,C  11,C  10,C   9)   -179.54 -0.000039    0.09   -179.44   
   238. D(C  30,N  13,C   1,C   2)     -2.25  0.000414   -0.15     -2.40   
   239. D(C  30,N  13,C   1,O   0)    176.22 -0.000916    1.84    178.06   
   240. D(C  14,N  13,C   1,C   2)   -175.40  0.000453    0.53   -174.87   
   241. D(C  14,N  13,C   1,O   0)      3.07 -0.000877    2.52      5.59   
   242. D(H  43,C  14,N  13,C   1)     53.53  0.001185   -1.12     52.41   
   243. D(H  42,C  14,N  13,C  30)     -3.87  0.000633   -0.23     -4.10   
   244. D(H  42,C  14,N  13,C   1)    168.56  0.000555   -1.00    167.57   
   245. D(C  15,C  14,N  13,C  30)    118.30 -0.000083    0.45    118.75   
   246. D(C  15,C  14,N  13,C   1)    -69.26 -0.000160   -0.32    -69.58   
   247. D(C  16,C  15,C  14,N  13)    -49.61  0.000211   -1.62    -51.23   
   248. D(H  44,C  15,C  14,H  43)    -47.15 -0.000160   -0.89    -48.05   
   249. D(H  44,C  15,C  14,H  42)   -165.18  0.000169   -0.93   -166.11   
   250. D(H  44,C  15,C  14,N  13)     74.51  0.000326   -1.56     72.95   
   251. D(C  16,C  15,C  14,H  43)   -171.27 -0.000275   -0.95   -172.23   
   252. D(C  16,C  15,C  14,H  42)     70.70  0.000054   -0.99     69.71   
   253. D(H  46,C  16,C  15,H  45)   -166.76 -0.000271    0.41   -166.35   
   254. D(H  46,C  16,C  15,H  44)    -50.85 -0.000348    0.31    -50.54   
   255. D(H  46,C  16,C  15,C  14)     73.79 -0.000677    0.37     74.16   
   256. D(C  17,C  16,C  15,H  45)     72.06 -0.000421    0.18     72.25   
   257. D(C  17,C  16,C  15,H  44)   -172.02 -0.000498    0.08   -171.94   
   258. D(C  17,C  16,C  15,C  14)    -47.39 -0.000827    0.14    -47.24   
   259. D(H  48,C  17,C  16,H  47)    -53.40  0.000560   -0.54    -53.93   
   260. D(H  48,C  17,C  16,H  46)     61.04 -0.000130   -0.36     60.68   
   261. D(H  48,C  17,C  16,C  15)   -176.17 -0.000136   -0.22   -176.39   
   262. D(O  18,C  17,C  16,H  47)     68.58  0.000310   -0.60     67.98   
   263. D(O  18,C  17,C  16,H  46)   -176.98 -0.000379   -0.42   -177.40   
   264. D(O  18,C  17,C  16,C  15)    -54.20 -0.000385   -0.28    -54.47   
   265. D(C  19,O  18,C  17,H  49)     47.75  0.000234   -2.73     45.02   
   266. D(C  19,O  18,C  17,H  48)    -68.55  0.002013   -3.26    -71.81   
   267. D(C  19,O  18,C  17,C  16)    169.35  0.001788   -3.10    166.25   
   268. D(H  50,C  19,O  18,C  17)     -2.67 -0.000369    0.58     -2.09   
   269. D(C  28,C  19,O  18,C  17)    115.98 -0.000960    0.72    116.70   
   270. D(C  20,C  19,O  18,C  17)   -122.97 -0.000488    0.52   -122.45   
   271. D(C  22,C  20,C  19,H  50)     64.35 -0.000287   -0.46     63.89   
   272. D(C  22,C  20,C  19,C  28)    -53.45  0.000143   -0.57    -54.02   
   273. D(C  22,C  20,C  19,O  18)   -174.72  0.000581   -0.62   -175.34   
   274. D(O  21,C  20,C  19,H  50)    -60.08  0.000491   -1.04    -61.12   
   275. D(O  21,C  20,C  19,C  28)   -177.87  0.000921   -1.15   -179.02   
   276. D(O  21,C  20,C  19,O  18)     60.85  0.001358   -1.19     59.66   
   277. D(H  52,O  21,C  20,H  51)    154.83  0.000726   -1.44    153.40   
   278. D(H  52,O  21,C  20,C  22)    -88.10  0.000497   -1.38    -89.48   
   279. D(H  52,O  21,C  20,C  19)     35.68  0.000745   -1.21     34.47   
   280. D(O  25,C  22,C  20,H  51)    -61.65  0.000289    0.07    -61.59   
   281. D(O  25,C  22,C  20,O  21)   -177.32  0.000224    0.11   -177.21   
   282. D(O  25,C  22,C  20,C  19)     56.60  0.000707   -0.19     56.40   
   283. D(C  23,C  22,C  20,H  51)     57.26 -0.000003   -0.03     57.24   
   284. D(C  23,C  22,C  20,O  21)    -58.41 -0.000068    0.02    -58.39   
   285. D(C  23,C  22,C  20,C  19)    175.51  0.000415   -0.28    175.23   
   286. D(H  54,C  23,C  22,H  53)     67.95 -0.000053   -0.54     67.42   
   287. D(H  54,C  23,C  22,O  25)    -50.47  0.000369   -0.54    -51.01   
   288. D(H  54,C  23,C  22,C  20)   -170.83  0.000532   -0.46   -171.29   
   289. D(O  24,C  23,C  22,H  53)    -50.72  0.000083   -0.48    -51.20   
   290. D(O  24,C  23,C  22,O  25)   -169.14  0.000506   -0.48   -169.62   
   291. D(O  24,C  23,C  22,C  20)     70.50  0.000668   -0.40     70.10   
   292. D(H  56,O  24,C  23,H  55)     73.14  0.000416   -1.10     72.04   
   293. D(H  56,O  24,C  23,H  54)   -169.05  0.000227   -1.22   -170.27   
   294. D(H  56,O  24,C  23,C  22)    -49.76  0.000697   -1.40    -51.15   
   295. D(C  26,O  25,C  22,H  53)     56.73 -0.000324    0.41     57.14   
   296. D(C  26,O  25,C  22,C  23)    174.21  0.000130    0.17    174.38   
   297. D(C  26,O  25,C  22,C  20)    -63.05  0.000519    0.30    -62.75   
   298. D(H  57,C  26,O  25,C  22)    -56.76 -0.000363   -0.15    -56.91   
   299. D(C  28,C  26,O  25,C  22)     63.37  0.000168   -0.31     63.06   
   300. D(O  27,C  26,O  25,C  22)   -175.90  0.000351   -0.37   -176.27   
   301. D(H  58,O  27,C  26,H  57)     77.96  0.000789   -0.90     77.06   
   302. D(H  58,O  27,C  26,C  28)    -44.28  0.000432   -0.66    -44.94   
   303. D(H  58,O  27,C  26,O  25)   -163.46 -0.000107   -0.56   -164.02   
   304. D(C  19,C  28,C  26,O  25)    -57.80 -0.000706    0.07    -57.74   
   305. D(O  29,C  28,C  19,H  50)     55.49 -0.000225    0.59     56.09   
   306. D(O  29,C  28,C  19,C  20)    173.44 -0.001137    0.83    174.27   
   307. D(O  29,C  28,C  19,O  18)    -63.99  0.000005    0.57    -63.41   
   308. D(C  26,C  28,C  19,H  50)    -63.81  0.000218    0.47    -63.35   
   309. D(C  26,C  28,C  19,C  20)     54.14 -0.000694    0.70     54.84   
   310. D(C  19,C  28,C  26,O  27)   -175.16  0.000292   -0.22   -175.39   
   311. D(C  26,C  28,C  19,O  18)    176.71  0.000448    0.44    177.15   
   312. D(O  29,C  28,C  26,H  57)    -59.89 -0.000123   -0.04    -59.94   
   313. D(O  29,C  28,C  26,O  27)     62.72  0.000358   -0.27     62.45   
   314. D(O  29,C  28,C  26,O  25)   -179.92 -0.000640    0.02   -179.90   
   315. D(C  19,C  28,C  26,H  57)     62.22 -0.000189    0.00     62.22   
   316. D(H  60,O  29,C  28,H  59)    -49.88  0.000251   -0.32    -50.20   
   317. D(H  60,O  29,C  28,C  26)   -167.00  0.000015   -0.29   -167.28   
   318. D(H  60,O  29,C  28,C  19)     71.93  0.000143   -0.26     71.68   
   319. D(O  31,C  30,N  13,C   1)   -176.07 -0.000851    1.62   -174.45   
   320. D(C   4,C  30,N  13,C  14)    177.57  0.000107   -0.55    177.02   
   321. D(C   4,C  30,N  13,C   1)      4.42 -0.000119    0.20      4.62   
   322. D(O  31,C  30,C   4,C   5)    -66.53  0.000282   -1.55    -68.08   
   323. D(O  31,C  30,C   4,C   2)    175.87  0.000537   -1.61    174.27   
   324. D(N  13,C  30,C   4,H  12)   -123.95  0.000311   -0.35   -124.30   
   325. D(N  13,C  30,C   4,C   5)    112.97 -0.000501   -0.09    112.88   
   326. D(O  31,C  30,N  13,C  14)     -2.91 -0.000625    0.87     -2.04   
   327. D(N  13,C  30,C   4,C   2)     -4.62 -0.000246   -0.15     -4.77   
    ----------------------------------------------------------------------------

Geometry step timings:
Preparation and reading OPT file:      0.001 s ( 3.039 %)
Internal coordinates            :      0.000 s ( 0.118 %)
B/P matrices and projection     :      0.011 s (29.954 %)
Hessian update/contruction      :      0.007 s (17.853 %)
Making the step                 :      0.015 s (38.727 %)
Converting the step to Cartesian:      0.001 s ( 2.740 %)
Storing new data                :      0.000 s ( 0.745 %)
Checking convergence            :      0.000 s ( 0.129 %)
Final printing                  :      0.003 s ( 6.634 %)
Total time                      :      0.038 s

Time for energy+gradient        :    655.809 s
Time for complete geometry iter :    655.933 s

         *************************************************************
         *                GEOMETRY OPTIMIZATION CYCLE   3            *
         *************************************************************
---------------------------------
CARTESIAN COORDINATES (ANGSTROEM)
---------------------------------
  O     -2.721192    2.631213    1.883506
  C     -2.489370    1.482279    1.684526
  C     -3.489464    0.348982    1.623018
  H     -3.983629    0.282654    2.584303
  C     -2.643337   -0.895672    1.308793
  C     -3.186725   -1.484869   -0.033452
  C     -2.438809   -1.027069   -1.263054
  C     -1.796753   -1.815946   -2.101500
  C     -4.642659   -0.968896   -0.030044
  C     -4.544847    0.472421    0.490529
  C     -5.816635    1.143755    0.941147
  C     -7.039824    0.664045    0.824951
  H     -2.710749   -1.647167    2.085268
  N     -1.223529    0.971075    1.456944
  C     -0.007549    1.785300    1.555299
  C      0.175857    2.844253    0.461479
  C      0.043777    2.370665   -0.991553
  C      0.809563    1.104654   -1.340880
  O      2.168248    1.250518   -1.001821
  C      2.912278    0.060569   -0.994165
  C      3.559892   -0.183501    0.365473
  O      2.637249   -0.283697    1.420217
  C      4.453591   -1.430865    0.286376
  C      5.238149   -1.693588    1.567370
  O      4.418229   -2.110164    2.617639
  O      5.400937   -1.258441   -0.740182
  C      4.855295   -1.129712   -2.007615
  O      5.911462   -1.056203   -2.887905
  C      3.999603    0.126375   -2.055548
  O      3.464287    0.220655   -3.349937
  C     -1.215206   -0.394481    1.295674
  O     -0.233694   -1.069055    1.182776
  H     -3.151582   -2.565772    0.002084
  H     -2.449916    0.031350   -1.466440
  H     -1.287037   -1.415027   -2.959142
  H     -1.745989   -2.880090   -1.954247
  H     -5.231167   -1.565182    0.661550
  H     -5.107684   -1.038316   -1.005955
  H     -4.124509    1.095221   -0.295967
  H     -5.675640    2.114579    1.386586
  H     -7.887639    1.225751    1.171051
  H     -7.246625   -0.292515    0.381022
  H      0.821423    1.100348    1.550236
  H     -0.026310    2.273385    2.520601
  H     -0.517851    3.660044    0.624332
  H      1.171163    3.248229    0.610761
  H     -1.001509    2.188632   -1.229074
  H      0.364000    3.178359   -1.642698
  H      0.707860    0.882768   -2.401783
  H      0.403964    0.261347   -0.807034
  H      2.258727   -0.777304   -1.225917
  H      4.187467    0.665652    0.605418
  H      1.816940   -0.695443    1.167501
  H      3.834072   -2.303276    0.080546
  H      5.947035   -2.485756    1.375332
  H      5.803641   -0.803019    1.832809
  H      3.702866   -1.490605    2.690629
  H      4.238442   -2.000939   -2.229987
  H      5.582172   -0.723033   -3.712640
  H      4.646790    0.973558   -1.852238
  H      3.093956    1.084285   -3.464659

----------------------------
CARTESIAN COORDINATES (A.U.)
----------------------------
  NO LB      ZA    FRAG     MASS         X           Y           Z
   0 O     8.0000    0    15.999   -5.142308    4.972271    3.559311
   1 C     6.0000    0    12.011   -4.704228    2.801102    3.183293
   2 C     6.0000    0    12.011   -6.594131    0.659481    3.067060
   3 H     1.0000    0     1.008   -7.527968    0.534139    4.883625
   4 C     6.0000    0    12.011   -4.995182   -1.692575    2.473260
   5 C     6.0000    0    12.011   -6.022038   -2.805995   -0.063215
   6 C     6.0000    0    12.011   -4.608681   -1.940879   -2.386827
   7 C     6.0000    0    12.011   -3.395371   -3.431641   -3.971260
   8 C     6.0000    0    12.011   -8.773355   -1.830948   -0.056775
   9 C     6.0000    0    12.011   -8.588516    0.892746    0.926966
  10 C     6.0000    0    12.011  -10.991847    2.161384    1.778511
  11 C     6.0000    0    12.011  -13.303340    1.254862    1.558932
  12 H     1.0000    0     1.008   -5.122573   -3.112695    3.940585
  13 N     7.0000    0    14.007   -2.312135    1.835067    2.753225
  14 C     6.0000    0    12.011   -0.014265    3.373728    2.939089
  15 C     6.0000    0    12.011    0.332321    5.374859    0.872069
  16 C     6.0000    0    12.011    0.082727    4.479909   -1.873763
  17 C     6.0000    0    12.011    1.529853    2.087493   -2.533895
  18 O     8.0000    0    15.999    4.097395    2.363137   -1.893167
  19 C     6.0000    0    12.011    5.503408    0.114458   -1.878699
  20 C     6.0000    0    12.011    6.727220   -0.346766    0.690643
  21 O     8.0000    0    15.999    4.983679   -0.536109    2.683821
  22 C     6.0000    0    12.011    8.416068   -2.703942    0.541172
  23 C     6.0000    0    12.011    9.898668   -3.200417    2.961899
  24 O     8.0000    0    15.999    8.349243   -3.987631    4.946621
  25 O     8.0000    0    15.999   10.206291   -2.378109   -1.398742
  26 C     6.0000    0    12.011    9.175178   -2.134847   -3.793842
  27 O     8.0000    0    15.999   11.171044   -1.995935   -5.457350
  28 C     6.0000    0    12.011    7.558154    0.238815   -3.884422
  29 O     8.0000    0    15.999    6.546553    0.416977   -6.330464
  30 C     6.0000    0    12.011   -2.296406   -0.745461    2.448468
  31 O     8.0000    0    15.999   -0.441618   -2.020221    2.235123
  32 H     1.0000    0     1.008   -5.955627   -4.848606    0.003939
  33 H     1.0000    0     1.008   -4.629669    0.059243   -2.771171
  34 H     1.0000    0     1.008   -2.432148   -2.674013   -5.591968
  35 H     1.0000    0     1.008   -3.299441   -5.442582   -3.692992
  36 H     1.0000    0     1.008   -9.885473   -2.957766    1.250149
  37 H     1.0000    0     1.008   -9.652124   -1.962133   -1.900980
  38 H     1.0000    0     1.008   -7.794193    2.069667   -0.559296
  39 H     1.0000    0     1.008  -10.725406    3.995975    2.620267
  40 H     1.0000    0     1.008  -14.905478    2.316333    2.212966
  41 H     1.0000    0     1.008  -13.694137   -0.552774    0.720027
  42 H     1.0000    0     1.008    1.552265    2.079356    2.929522
  43 H     1.0000    0     1.008   -0.049719    4.296076    4.763246
  44 H     1.0000    0     1.008   -0.978597    6.916480    1.179816
  45 H     1.0000    0     1.008    2.213177    6.138263    1.154170
  46 H     1.0000    0     1.008   -1.892578    4.135914   -2.322612
  47 H     1.0000    0     1.008    0.687860    6.006228   -3.104249
  48 H     1.0000    0     1.008    1.337661    1.668190   -4.538713
  49 H     1.0000    0     1.008    0.763381    0.493873   -1.525073
  50 H     1.0000    0     1.008    4.268376   -1.468891   -2.316648
  51 H     1.0000    0     1.008    7.913165    1.257900    1.144075
  52 H     1.0000    0     1.008    3.433519   -1.314198    2.206258
  53 H     1.0000    0     1.008    7.245347   -4.352560    0.152211
  54 H     1.0000    0     1.008   11.238267   -4.697397    2.599000
  55 H     1.0000    0     1.008   10.967292   -1.517487    3.463508
  56 H     1.0000    0     1.008    6.997402   -2.816836    5.084552
  57 H     1.0000    0     1.008    8.009494   -3.781227   -4.214064
  58 H     1.0000    0     1.008   10.548777   -1.366334   -7.015873
  59 H     1.0000    0     1.008    8.781161    1.839757   -3.500223
  60 H     1.0000    0     1.008    5.846729    2.049001   -6.547257

--------------------------------
INTERNAL COORDINATES (ANGSTROEM)
--------------------------------
 O      0   0   0     0.000000000000     0.00000000     0.00000000
 C      1   0   0     1.188857352129     0.00000000     0.00000000
 C      2   1   0     1.512723671621   127.00661826     0.00000000
 H      3   2   1     1.082897798995   108.14886032   298.82393331
 C      3   2   1     1.537476405036   104.53452162   178.73542066
 C      5   3   2     1.563344069066   106.81542332   239.20064528
 C      6   5   3     1.510258482409   114.37129203    94.87947786
 C      7   6   5     1.318163533701   125.28700997   119.31034255
 C      6   5   3     1.544662695770   101.52694773   334.61834079
 C      9   6   5     1.535564329489   104.72871903    40.76231840
 C     10   9   6     1.507047221167   117.75778839   195.05531420
 C     11  10   9     1.319020847129   126.45794356   353.42285263
 H      5   3   2     1.082683151095   112.39980028   119.18253916
 N      2   1   3     1.384007318719   124.25174467   179.43229828
 C     14   2   1     1.466712126416   122.83303387     5.59870142
 C     15  14   2     1.533446975751   115.76524476   290.42413537
 C     16  15  14     1.533959568702   116.88324728   308.75646036
 C     17  16  15     1.520277372518   115.55540615   312.72802041
 O     18  17  16     1.407927967074   110.15044669   305.49785669
 C     19  18  17     1.403431269155   115.15567653   166.25965464
 C     20  19  18     1.525643354562   111.44119777   237.53113638
 O     21  20  19     1.404917523738   113.68460678    59.67023828
 C     21  20  19     1.536512780503   109.32306534   184.66810864
 C     23  21  20     1.524958719530   113.31965740   175.22910658
 O     24  23  21     1.396019902864   112.40893159    70.09770895
 O     23  21  20     1.407485440939   109.24351935    56.40774347
 C     26  23  21     1.385886218702   114.41841509   297.24653324
 O     27  26  23     1.376881754910   106.71696034   183.72031251
 C     27  26  23     1.520612634072   109.09336906    63.06274406
 O     29  27  26     1.403886312816   107.40423463   180.09835735
 C     14   2   1     1.375071625204   113.05603130   178.07499904
 O     31  14   2     1.196311029771   125.17044329   185.55864285
 H      6   5   3     1.082058394963   109.69384134   216.72627407
 H      7   6   5     1.077840763906   116.49968406   298.47158404
 H      8   7   6     1.075219137011   121.00495630   179.88789215
 H      8   7   6     1.075482548589   121.87437034   358.99284263
 H      9   6   5     1.086370856364   109.18752047   283.56800344
 H      9   6   5     1.083268237155   112.40968404   163.98181163
 H     10   9   6     1.087722484324   108.47661298    73.84974101
 H     11  10   9     1.077401401210   114.49299139   174.21081775
 H     12  11  10     1.074285265766   120.88472822   180.55935263
 H     12  11  10     1.074638016154   122.58656654     0.18423885
 H     15  14   2     1.075351357151   106.57021007   167.57043894
 H     15  14   2     1.081844624461   107.21222994    52.40434377
 H     16  15  14     1.083174203340   109.64909843    72.93145493
 H     16  15  14     1.084488614862   105.59406187   187.48355842
 H     17  16  15     1.087279289391   109.96195416    74.13737063
 H     17  16  15     1.085771945711   108.24066626   189.61017399
 H     18  17  16     1.088620107041   110.27964202   183.59623111
 H     18  17  16     1.077343551092   110.38638134    65.88087735
 H     20  19  18     1.087597054388   109.47920349   357.89914689
 H     21  20  19     1.082813344486   108.54497499   302.38944960
 H     22  21  20     0.952002145330   113.41765593    34.47010428
 H     23  21  20     1.089619687566   109.20859867   295.98761331
 H     24  23  21     1.080243939143   108.33791701   188.71298517
 H     24  23  21     1.087818994327   109.35239457   305.73229342
 H     25  24  23     0.949170404408   107.80190066   308.85046029
 H     27  26  23     1.090409640809   109.57349446   303.09043021
 H     28  27  26     0.948484061514   107.96085794   195.98792549
 H     29  27  26     1.085312863756   107.65768879    61.27200499
 H     30  29  27     0.946658660728   108.79406522   192.71613756

---------------------------
INTERNAL COORDINATES (A.U.)
---------------------------
 O      0   0   0     0.000000000000     0.00000000     0.00000000
 C      1   0   0     2.246614807823     0.00000000     0.00000000
 C      2   1   0     2.858633455663   127.00661826     0.00000000
 H      3   2   1     2.046380271127   108.14886032   298.82393331
 C      3   2   1     2.905409342884   104.53452162   178.73542066
 C      5   3   2     2.954292143625   106.81542332   239.20064528
 C      6   5   3     2.853974923184   114.37129203    94.87947786
 C      7   6   5     2.490968078416   125.28700997   119.31034255
 C      6   5   3     2.918989464290   101.52694773   334.61834079
 C      9   6   5     2.901796043753   104.72871903    40.76231840
 C     10   9   6     2.847906518894   117.75778839   195.05531420
 C     11  10   9     2.492588166007   126.45794356   353.42285263
 H      5   3   2     2.045974645380   112.39980028   119.18253916
 N      2   1   3     2.615394799722   124.25174467   179.43229828
 C     14   2   1     2.771684236228   122.83303387     5.59870142
 C     15  14   2     2.897794825059   115.76524476   290.42413537
 C     16  15  14     2.898763485356   116.88324728   308.75646036
 C     17  16  15     2.872907881656   115.55540615   312.72802041
 O     18  17  16     2.660598274058   110.15044669   305.49785669
 C     19  18  17     2.652100746484   115.15567653   166.25965464
 C     20  19  18     2.883048118159   111.44119777   237.53113638
 O     21  20  19     2.654909360611   113.68460678    59.67023828
 C     21  20  19     2.903588356421   109.32306534   184.66810864
 C     23  21  20     2.881754345447   113.31965740   175.22910658
 O     24  23  21     2.638095293915   112.40893159    70.09770895
 O     23  21  20     2.659762020855   109.24351935    56.40774347
 C     26  23  21     2.618945406122   114.41841509   297.24653324
 O     27  26  23     2.601929435572   106.71696034   183.72031251
 C     27  26  23     2.873541434177   109.09336906    63.06274406
 O     29  27  26     2.652960654383   107.40423463   180.09835735
 C     14   2   1     2.598508786162   113.05603130   178.07499904
 O     31  14   2     2.260700217257   125.17044329   185.55864285
 H      6   5   3     2.044794027391   109.69384134   216.72627407
 H      7   6   5     2.036823859760   116.49968406   298.47158404
 H      8   7   6     2.031869702901   121.00495630   179.88789215
 H      8   7   6     2.032367478644   121.87437034   358.99284263
 H      9   6   5     2.052943398402   109.18752047   283.56800344
 H      9   6   5     2.047080297799   112.40968404   163.98181163
 H     10   9   6     2.055497605081   108.47661298    73.84974101
 H     11  10   9     2.035993584590   114.49299139   174.21081775
 H     12  11  10     2.030104942004   120.88472822   180.55935263
 H     12  11  10     2.030771543631   122.58656654     0.18423885
 H     15  14   2     2.032119562755   106.57021007   167.57043894
 H     15  14   2     2.044390059685   107.21222994    52.40434377
 H     16  15  14     2.046902599640   109.64909843    72.93145493
 H     16  15  14     2.049386477446   105.59406187   187.48355842
 H     17  16  15     2.054660088033   109.96195416    74.13737063
 H     17  16  15     2.051811621289   108.24066626   189.61017399
 H     18  17  16     2.057193866188   110.27964202   183.59623111
 H     18  17  16     2.035884263709   110.38638134    65.88087735
 H     20  19  18     2.055260576852   109.47920349   357.89914689
 H     21  20  19     2.046220675233   108.54497499   302.38944960
 H     22  21  20     1.799023333579   113.41765593    34.47010428
 H     23  21  20     2.059082799629   109.20859867   295.98761331
 H     24  23  21     2.041365202808   108.33791701   188.71298517
 H     24  23  21     2.055679982556   109.35239457   305.73229342
 H     25  24  23     1.793672118754   107.80190066   308.85046029
 H     27  26  23     2.060575594916   109.57349446   303.09043021
 H     28  27  26     1.792375118650   107.96085794   195.98792549
 H     29  27  26     2.050944082121   107.65768879    61.27200499
 H     30  29  27     1.788925611080   108.79406522   192.71613756

------------------------------------------------------------------------------
                   ___                                                        
                  /   \      - P O W E R E D   B Y -                         
                 /     \                                                     
                 |  |  |   _    _      __       _____    __    __             
                 |  |  |  | |  | |    /  \     |  _  \  |  |  /  |          
                  \  \/   | |  | |   /    \    | | | |  |  | /  /          
                 / \  \   | |__| |  /  /\  \   | |_| |  |  |/  /          
                |  |  |   |  __  | /  /__\  \  |    /   |      \           
                |  |  |   | |  | | |   __   |  |    \   |  |\   \          
                \     /   | |  | | |  |  |  |  | |\  \  |  | \   \       
                 \___/    |_|  |_| |__|  |__|  |_| \__\ |__|  \__/        
                                                                              
                      - O R C A' S   B I G   F R I E N D -                    
                                      &                                       
                       - I N T E G R A L  F E E D E R -                       
                                                                              
 v1 FN, 2020, v2 2021, v3 2022-2024                                           
------------------------------------------------------------------------------


----------------------
SHARK INTEGRAL PACKAGE
----------------------

Number of atoms                             ...     61
Number of basis functions                   ...    482
Number of shells                            ...    242
Maximum angular momentum                    ...      2
Integral batch strategy                     ... SHARK/LIBINT Hybrid
RI-J (if used) integral strategy            ... SPLIT-RIJ (Revised 2003 algorithm where possible)
Printlevel                                  ...      1
Contraction scheme used                     ... SEGMENTED contraction
Prescreening option                         ... SCHWARTZ
   Thresh                                   ... 2.500e-11
   Tcut                                     ... 2.500e-12
   Tpresel                                  ... 2.500e-12 
Coulomb Range Separation                    ... NOT USED
Exchange Range Separation                   ... NOT USED
Multipole approximations                    ... NOT USED
Finite Nucleus Model                        ... NOT USED
CABS basis                                  ... NOT available
Auxiliary Coulomb fitting basis             ... NOT available
Auxiliary J/K fitting basis                 ... NOT available
Auxiliary Correlation fitting basis         ... NOT available
Auxiliary 'external' fitting basis          ... NOT available

Checking pre-screening integrals            ... done (  0.0 sec) Dimension = 242
Check shell pair data                       ... done (  0.0 sec)
Shell pair information
Shell pair cut-off parameter TPreSel        ...   2.5e-12
Total number of shell pairs                 ...     29403
Shell pairs after pre-screening             ...     18692
Total number of primitive shell pairs       ...    165748
Primitive shell pairs kept                  ...     55521
          la=0 lb=0:   7119 shell pairs
          la=1 lb=0:   6265 shell pairs
          la=1 lb=1:   1387 shell pairs
          la=2 lb=0:   2516 shell pairs
          la=2 lb=1:   1168 shell pairs
          la=2 lb=2:    237 shell pairs

Calculating one electron integrals          ... done (  0.2 sec)
Calculating Nuclear repulsion               ... done (  0.0 sec) ENN=   3255.420461756332 Eh

Diagonalization of the overlap matrix:
Smallest eigenvalue                        ... 1.152e-03
Time for diagonalization                   ...    0.022 sec
Threshold for overlap eigenvalues          ... 1.000e-07
Number of eigenvalues below threshold      ... 0
Time for construction of square roots      ...    0.011 sec
Total time needed                          ...    0.034 sec

-------------------
DFT GRID GENERATION
-------------------

General Integration Accuracy     IntAcc      ... 4.388
Radial Grid Type                 RadialGrid  ... OptM3 with GC (2021)
Angular Grid (max. ang.)         AngularGrid ... 4 (Lebedev-302)
Angular grid pruning method      GridPruning ... 4 (adaptive)
Weight generation scheme         WeightScheme... mBecke (2022)
Basis function cutoff            BFCut       ... 1.0000e-11
Integration weight cutoff        WCut        ... 1.0000e-14
Partially contracted basis set               ... off
Rotationally invariant grid construction     ... off
Angular grids for H and He will be reduced by one unit

Total number of grid points                  ...   275864
Total number of batches                      ...     4341
Average number of points per batch           ...       63
Average number of grid points per atom       ...     4522
Initializing property integral containers    ... done (  0.0 sec)

SHARK setup successfully completed in   4.6 seconds

Maximum memory used throughout the entire STARTUP-calculation: 122.4 MB
Occupation numbers will be reassigned to an Aufbau configuration
             **** ENERGY FILE WAS UPDATED (monomer_hf_opt.en.tmp) ****
Finished Guess after   0.2 sec
Maximum memory used throughout the entire GUESS-calculation: 46.9 MB
----------------------------------------D-I-I-S--------------------------------------------
Iteration    Energy (Eh)           Delta-E    RMSDP     MaxDP     DIISErr   Damp  Time(sec)
-------------------------------------------------------------------------------------------
               ***  Starting incremental Fock matrix formation  ***
    1    -1466.5732545757282423     0.00e+00  9.20e-05  2.62e-03  1.97e-02  0.700  53.2
    2    -1466.5757674312444578    -2.51e-03  8.41e-05  2.34e-03  1.59e-02  0.700  41.0
                               ***Turning on AO-DIIS***
    3    -1466.5778691238519968    -2.10e-03  8.52e-05  2.34e-03  1.25e-02  0.700  40.5
    4    -1466.5795404278660499    -1.67e-03  2.38e-04  6.12e-03  9.09e-03  0.000  40.4
                              *** Initializing SOSCF ***
---------------------------------------S-O-S-C-F--------------------------------------
Iteration    Energy (Eh)           Delta-E    RMSDP     MaxDP     MaxGrad    Time(sec)
--------------------------------------------------------------------------------------
    5    -1466.5846113817997320    -5.07e-03  3.10e-05  1.19e-03  9.89e-04    43.2
               *** Restarting incremental Fock matrix formation ***
    6    -1466.5846440742798222    -3.27e-05  1.62e-05  6.58e-04  2.30e-04    53.2
    7    -1466.5846516981819150    -7.62e-06  1.33e-05  5.49e-04  1.20e-04    34.3
    8    -1466.5846540637667204    -2.37e-06  2.68e-06  1.46e-04  2.63e-05    33.5
    9    -1466.5846541722103211    -1.08e-07  1.15e-06  5.36e-05  1.69e-05    29.0
   10    -1466.5846542138242512    -4.16e-08  6.72e-07  4.74e-05  1.02e-05    26.4
   11    -1466.5846542177687297    -3.94e-09  2.67e-07  2.36e-05  4.29e-06    24.6
                 **** Energy Check signals convergence ****

               *****************************************************
               *                     SUCCESS                       *
               *           SCF CONVERGED AFTER  11 CYCLES          *
               *****************************************************

             **** ENERGY FILE WAS UPDATED (monomer_hf_opt.en.tmp) ****

----------------
TOTAL SCF ENERGY
----------------

Total Energy       :      -1466.58465421776873 Eh          -39907.79731 eV

Components:
Nuclear Repulsion  :       3255.42046175633186 Eh           88584.49431 eV
Electronic Energy  :      -4722.00511597410059 Eh         -128492.29163 eV
One Electron Energy:      -8485.37927766055145 Eh         -230898.90882 eV
Two Electron Energy:       3763.37416168645086 Eh          102406.61719 eV

Virial components:
Potential Energy   :      -2933.29150388243579 Eh          -79818.91974 eV
Kinetic Energy     :       1466.70684966466729 Eh           39911.12242 eV
Virial Ratio       :          1.99991668720513

---------------
SCF CONVERGENCE
---------------

  Last Energy change         ...    3.9445e-09  Tolerance :   1.0000e-08
  Last MAX-Density change    ...    2.3634e-05  Tolerance :   1.0000e-07
  Last RMS-Density change    ...    2.6688e-07  Tolerance :   5.0000e-09
  Last DIIS Error            ...    9.8932e-04  Tolerance :   5.0000e-07
  Last Orbital Gradient      ...    4.2900e-06  Tolerance :   1.0000e-05
  Last Orbital Rotation      ...    1.5836e-05  Tolerance :   1.0000e-05


Total SCF time: 0 days 0 hours 6 min 59 sec 
Finished LeanSCF after 419.4 sec

Maximum memory used throughout the entire LEANSCF-calculation: 49.0 MB

-------------------------   --------------------
FINAL SINGLE POINT ENERGY     -1466.584654217769
-------------------------   --------------------

------------------------------------------------------------------------------
                         ORCA SCF GRADIENT CALCULATION
------------------------------------------------------------------------------

Nuc. rep. gradient        (SHARK) ... done (  0.0 sec)
HCore & Overlap gradient  (SHARK) ... done (  3.0 sec)
Two-electron gradient     (SHARK) ... done (183.3 sec)

------------------
CARTESIAN GRADIENT
------------------

   1   O   :    0.000832474   -0.002820925   -0.001043553
   2   C   :   -0.000871005    0.001455304    0.002412650
   3   C   :    0.000269948    0.001065020    0.000563544
   4   H   :   -0.000308945    0.000080068   -0.000678902
   5   C   :    0.000801325   -0.000138952    0.000610150
   6   C   :   -0.000177855   -0.001290853    0.000053653
   7   C   :    0.000789632   -0.000509738   -0.000863934
   8   C   :    0.000173368   -0.000179237   -0.001407358
   9   C   :   -0.000772960   -0.000297122   -0.000620133
  10   C   :   -0.000537663   -0.000223800   -0.000662672
  11   C   :    0.000294608    0.001130072    0.000057923
  12   C   :   -0.001387592   -0.000042427    0.000097316
  13   H   :    0.000324407    0.000411809    0.000329947
  14   N   :    0.000512093    0.000455471    0.000940133
  15   C   :    0.000466676    0.000014648    0.000601596
  16   C   :    0.000137154    0.000245475   -0.000517640
  17   C   :    0.000304212    0.000860242   -0.000335813
  18   C   :   -0.001553815   -0.001174982   -0.001283088
  19   O   :    0.000267605    0.000568982    0.001865759
  20   C   :   -0.000452030   -0.000521389   -0.000937378
  21   C   :    0.000311508    0.000653082   -0.000714036
  22   O   :   -0.001312394   -0.000665625    0.000509053
  23   C   :   -0.001034908   -0.000390595    0.000854601
  24   C   :    0.000215397    0.000503824   -0.000775039
  25   O   :   -0.000578829    0.000029046    0.001756155
  26   O   :    0.000914315   -0.000107858   -0.000358461
  27   C   :   -0.001056754    0.000150647   -0.000972917
  28   O   :   -0.000820365   -0.000230581   -0.001339223
  29   C   :    0.000751461    0.000357800    0.000232725
  30   O   :   -0.000847592    0.000968442   -0.000491689
  31   C   :    0.000859349   -0.001693593   -0.001753498
  32   O   :   -0.002137169    0.000584025    0.000848259
  33   H   :    0.000135924    0.000317751    0.000090527
  34   H   :    0.000216074   -0.000661133    0.000329308
  35   H   :    0.000569156    0.001313999    0.000781958
  36   H   :   -0.000408071    0.000614475    0.000551943
  37   H   :    0.000133321    0.000153440   -0.000055986
  38   H   :    0.000022645   -0.000145306    0.000314119
  39   H   :    0.000033950   -0.000263872    0.000241981
  40   H   :   -0.000607376   -0.000456582   -0.000084313
  41   H   :    0.000652271   -0.000068206   -0.000075354
  42   H   :    0.000699360    0.000447712    0.000119525
  43   H   :    0.001190051   -0.001542537   -0.000732673
  44   H   :   -0.000171724   -0.001040234    0.000038975
  45   H   :    0.000816809    0.000555346    0.000218950
  46   H   :   -0.000377793    0.000271344   -0.000013392
  47   H   :    0.000332612   -0.000198263    0.000072693
  48   H   :   -0.000409550   -0.000265630   -0.000217385
  49   H   :   -0.000506116   -0.001510289   -0.000052077
  50   H   :    0.001693682    0.001351667   -0.000493390
  51   H   :   -0.000013907    0.000486928    0.000408592
  52   H   :   -0.000353594   -0.000643125    0.000093824
  53   H   :   -0.000233264    0.003099954    0.000986034
  54   H   :    0.000227798    0.000407047   -0.000258554
  55   H   :   -0.000300548    0.000400328    0.000172793
  56   H   :   -0.000158983   -0.000601013    0.000438143
  57   H   :    0.000776158    0.000059966   -0.001869913
  58   H   :    0.000837342    0.000281570    0.000275014
  59   H   :    0.000493665   -0.000098002    0.001545543
  60   H   :   -0.000581789   -0.000218768   -0.000146353
  61   H   :    0.000916240   -0.001294848    0.000341338

Difference to translation invariance:
           :   -0.0000000001   -0.0000000000   -0.0000000000

Difference to rotation invariance:
           :   -0.0000011964    0.0000005740   -0.0000021051

Norm of the Cartesian gradient     ...    0.0109937143
RMS gradient                       ...    0.0008126787
MAX gradient                       ...    0.0030999540

-------
TIMINGS
-------

Total SCF gradient time     ....      186.276 sec

Densities                   ....       0.005 sec  (  0.0%)
One electron gradient       ....       3.019 sec  (  1.6%)
Two electron gradient       ....     183.252 sec  ( 98.4%)

Maximum memory used throughout the entire SCFGRAD-calculation: 107.5 MB
------------------------------------------------------------------------------
                         ORCA GEOMETRY RELAXATION STEP
------------------------------------------------------------------------------

Reading the OPT-File                    .... done
Getting information on internals        .... done
Copying old internal coords+grads       .... done
Making the new internal coordinates     .... (2022 redundants) done
Validating the new internal coordinates .... (2022 redundants) done
Calculating the B-matrix                .... done
Calculating the G,G- and P matrices     .... done
Transforming gradient to internals      .... done
Projecting the internal gradient        .... done
Number of atoms                         ....  61
Number of internal coordinates          .... 327
Current Energy                          .... -1466.584654218 Eh
Current gradient norm                   ....     0.010993714 Eh/bohr
Maximum allowed component of the step   ....  0.300
Current trust radius                    ....  0.450
Updating the Hessian (BFGS)             .... done
Forming the augmented Hessian           .... done
Diagonalizing the augmented Hessian     .... done
Last element of RFO vector              ....  0.919646364
Lowest eigenvalues of augmented Hessian:
 -0.003135676  0.001215917  0.010338916  0.012205262  0.012404863
Length of the computed step             ....  0.427063567
The final length of the internal step   ....  0.410871180
Converting the step to Cartesian space:
 Initial RMS(Int)=    0.0227212282
Transforming coordinates:
 Iter   0:  RMS(Cart)=    0.2148154658 RMS(Int)=    0.4917043116
 Iter   5:  RMS(Cart)=    0.0000018038 RMS(Int)=    0.0000004750
done
Storing new coordinates                 .... done
The predicted energy change is          ....    -0.001568801
Previously predicted energy change      ....    -0.001488466
Actually observed energy change         ....    -0.000692469
Ratio of predicted to observed change   ....     0.465223216
New trust radius                        ....     0.300000000

                                .--------------------.
          ----------------------|Geometry convergence|-------------------------
          Item                value                   Tolerance       Converged
          ---------------------------------------------------------------------
          Energy change      -0.0006924689            0.0000050000      NO
          RMS gradient        0.0014544252            0.0001000000      NO
          MAX gradient        0.0118018915            0.0003000000      NO
          RMS step            0.0227212282            0.0020000000      NO
          MAX step            0.3000000000            0.0040000000      NO
          ........................................................
          Max(Bonds)      0.1588      Max(Angles)    1.08
          Max(Dihed)        5.15      Max(Improp)    0.00
          ---------------------------------------------------------------------

The optimization has not yet converged - more geometry cycles are needed


    ---------------------------------------------------------------------------
                         Redundant Internal Coordinates
                            (Angstroem and degrees)

        Definition                    Value    dE/dq     Step     New-Value
    ----------------------------------------------------------------------------
     1. B(C   1,O   0)                1.1889 -0.003063 -0.0022    1.1867   
     2. B(C   2,C   1)                1.5127 -0.000456  0.0039    1.5166   
     3. B(H   3,C   2)                1.0829 -0.000467  0.0001    1.0830   
     4. B(C   4,C   2)                1.5375  0.000450  0.0013    1.5388   
     5. B(C   5,C   4)                1.5633  0.000895 -0.0023    1.5611   
     6. B(C   6,C   5)                1.5103  0.000893  0.0013    1.5115   
     7. B(C   7,C   6)                1.3182 -0.000566  0.0004    1.3186   
     8. B(C   8,C   5)                1.5447  0.000801  0.0015    1.5462   
     9. B(C   9,C   8)                1.5356  0.000732  0.0019    1.5374   
    10. B(C   9,C   2)                1.5529  0.001028  0.0007    1.5537   
    11. B(C  10,C   9)                1.5070  0.000779  0.0008    1.5078   
    12. B(C  11,C  10)                1.3190 -0.000102 -0.0010    1.3180   
    13. B(H  12,C   4)                1.0827 -0.000069 -0.0001    1.0826   
    14. B(N  13,C   1)                1.3840  0.000142  0.0005    1.3845   
    15. B(C  14,N  13)                1.4667  0.001770 -0.0007    1.4661   
    16. B(C  15,C  14)                1.5334  0.003459  0.0001    1.5335   
    17. B(C  16,C  15)                1.5340 -0.000424  0.0017    1.5357   
    18. B(C  17,C  16)                1.5203 -0.002911  0.0016    1.5219   
    19. B(O  18,C  17)                1.4079 -0.000767 -0.0029    1.4050   
    20. B(C  19,O  18)                1.4034 -0.003267 -0.0027    1.4007   
    21. B(C  20,C  19)                1.5256 -0.000856  0.0033    1.5289   
    22. B(O  21,C  20)                1.4049  0.001532 -0.0044    1.4005   
    23. B(C  22,C  20)                1.5365  0.000269  0.0033    1.5398   
    24. B(C  23,C  22)                1.5250  0.000239  0.0024    1.5274   
    25. B(O  24,C  23)                1.3960 -0.000014 -0.0032    1.3928   
    26. B(O  25,C  22)                1.4075  0.001103 -0.0047    1.4028   
    27. B(C  26,O  25)                1.3859  0.000719 -0.0046    1.3813   
    28. B(O  27,C  26)                1.3769 -0.000416 -0.0032    1.3737   
    29. B(C  28,C  26)                1.5206 -0.000380  0.0015    1.5222   
    30. B(C  28,C  19)                1.5209 -0.000056  0.0017    1.5226   
    31. B(O  29,C  28)                1.4039  0.000086 -0.0014    1.4025   
    32. B(C  30,N  13)                1.3751  0.001672  0.0010    1.3761   
    33. B(C  30,C   4)                1.5136 -0.000268  0.0040    1.5176   
    34. B(O  31,C  30)                1.1963 -0.002510 -0.0022    1.1941   
    35. B(H  32,C   5)                1.0821 -0.000310  0.0001    1.0822   
    36. B(H  33,C   6)                1.0778 -0.000714  0.0017    1.0796   
    37. B(H  34,C   7)                1.0752 -0.000350 -0.0007    1.0745   
    38. B(H  35,C   7)                1.0755 -0.000552  0.0009    1.0763   
    39. B(H  36,C   8)                1.0864 -0.000192  0.0001    1.0865   
    40. B(H  37,C   8)                1.0833 -0.000283  0.0002    1.0835   
    41. B(H  38,C   9)                1.0877 -0.000313 -0.0005    1.0872   
    42. B(H  39,C  10)                1.0774 -0.000526  0.0005    1.0779   
    43. B(H  40,C  11)                1.0743 -0.000575  0.0008    1.0751   
    44. B(H  41,C  11)                1.0746 -0.000582  0.0014    1.0760   
    45. B(H  42,C  14)                1.0754  0.001903 -0.0003    1.0750   
    46. B(H  43,C  14)                1.0818 -0.000432 -0.0002    1.0816   
    47. B(H  44,C  15)                1.0832 -0.000072  0.0007    1.0839   
    48. B(H  45,C  15)                1.0845 -0.000247  0.0002    1.0847   
    49. B(H  46,C  16)                1.0873 -0.000302 -0.0001    1.0872   
    50. B(H  47,C  16)                1.0858 -0.000188  0.0001    1.0859   
    51. B(H  48,C  17)                1.0886 -0.000023 -0.0006    1.0880   
    52. B(H  48,H  34)                3.0936 -0.001108  0.1588    3.2523   
    53. B(H  49,C  17)                1.0773 -0.001940  0.0039    1.0812   
    54. B(H  50,C  19)                1.0876 -0.000454  0.0004    1.0880   
    55. B(H  51,C  20)                1.0828 -0.000688  0.0003    1.0831   
    56. B(H  52,O  21)                0.9520 -0.001855 -0.0007    0.9513   
    57. B(H  52,O  31)                2.0844 -0.000491  0.0648    2.1493   
    58. B(H  53,C  22)                1.0896 -0.000407  0.0005    1.0901   
    59. B(H  54,C  23)                1.0802 -0.000522  0.0006    1.0808   
    60. B(H  55,C  23)                1.0878 -0.000468  0.0009    1.0887   
    61. B(H  56,O  24)                0.9492 -0.001152  0.0006    0.9497   
    62. B(H  56,O  21)                2.0509 -0.000635  0.0446    2.0955   
    63. B(H  57,C  26)                1.0904 -0.000755  0.0014    1.0918   
    64. B(H  58,O  27)                0.9485 -0.001543  0.0021    0.9506   
    65. B(H  58,O  29)                2.3468  0.000020 -0.0018    2.3450   
    66. B(H  59,C  28)                1.0853 -0.000545  0.0004    1.0857   
    67. B(H  60,O  29)                0.9467 -0.001581  0.0022    0.9488   
    68. A(O   0,C   1,N  13)          124.25 -0.000900    0.31    124.56   
    69. A(O   0,C   1,C   2)          127.01 -0.000222   -0.09    126.92   
    70. A(C   2,C   1,N  13)          108.74  0.001114   -0.21    108.53   
    71. A(C   1,C   2,H   3)          108.15 -0.000017   -0.26    107.89   
    72. A(H   3,C   2,C   4)          112.52  0.000172   -0.03    112.49   
    73. A(H   3,C   2,C   9)          110.00 -0.000104   -0.05    109.95   
    74. A(C   1,C   2,C   9)          114.80  0.000317    0.25    115.05   
    75. A(C   4,C   2,C   9)          106.82 -0.000017    0.05    106.87   
    76. A(C   1,C   2,C   4)          104.53 -0.000347    0.05    104.59   
    77. A(H  12,C   4,C  30)          107.15  0.000206    0.15    107.30   
    78. A(C   2,C   4,H  12)          112.40 -0.000119    0.10    112.50   
    79. A(C   5,C   4,C  30)          116.44 -0.000475   -0.09    116.36   
    80. A(C   2,C   4,C   5)          106.82  0.000139    0.11    106.93   
    81. A(C   2,C   4,C  30)          104.65  0.000187    0.05    104.70   
    82. A(C   5,C   4,H  12)          109.42  0.000052   -0.30    109.12   
    83. A(C   6,C   5,C   8)          111.55  0.000067    0.35    111.90   
    84. A(C   4,C   5,C   8)          101.53 -0.000095    0.02    101.55   
    85. A(C   6,C   5,H  32)          108.27  0.000052   -0.20    108.06   
    86. A(C   4,C   5,H  32)          109.69  0.000038   -0.14    109.56   
    87. A(C   4,C   5,C   6)          114.37 -0.000152    0.11    114.48   
    88. A(C   8,C   5,H  32)          111.36  0.000087   -0.14    111.22   
    89. A(C   5,C   6,C   7)          125.29  0.001217   -0.18    125.11   
    90. A(C   5,C   6,H  33)          116.50 -0.000656    0.18    116.68   
    91. A(C   7,C   6,H  33)          118.21 -0.000559   -0.01    118.20   
    92. A(C   6,C   7,H  35)          121.87 -0.000562    0.35    122.22   
    93. A(C   6,C   7,H  34)          121.00 -0.000378    0.09    121.10   
    94. A(H  34,C   7,H  35)          117.11  0.000937   -0.44    116.67   
    95. A(C   9,C   8,H  36)          109.50 -0.000070   -0.06    109.45   
    96. A(C   5,C   8,H  36)          109.19  0.000022   -0.01    109.17   
    97. A(H  36,C   8,H  37)          107.81 -0.000109   -0.06    107.75   
    98. A(C   5,C   8,C   9)          104.73  0.000073    0.15    104.88   
    99. A(C   5,C   8,H  37)          112.41 -0.000115   -0.00    112.41   
   100. A(C   9,C   8,H  37)          113.14  0.000200   -0.02    113.12   
   101. A(C   2,C   9,C  10)          113.01 -0.000010   -0.12    112.89   
   102. A(C  10,C   9,H  38)          106.69  0.000135   -0.15    106.55   
   103. A(C   2,C   9,C   8)          102.47 -0.000089    0.13    102.60   
   104. A(C   8,C   9,H  38)          108.48 -0.000176    0.04    108.52   
   105. A(C   2,C   9,H  38)          108.07 -0.000206    0.25    108.32   
   106. A(C   8,C   9,C  10)          117.76  0.000290   -0.11    117.65   
   107. A(C   9,C  10,H  39)          114.49  0.000645   -0.34    114.15   
   108. A(C  11,C  10,H  39)          119.04 -0.000478    0.14    119.19   
   109. A(C   9,C  10,C  11)          126.46 -0.000167    0.20    126.66   
   110. A(H  40,C  11,H  41)          116.53  0.000628   -0.36    116.16   
   111. A(C  10,C  11,H  41)          122.59 -0.000597    0.34    122.92   
   112. A(C  10,C  11,H  40)          120.88 -0.000031    0.03    120.91   
   113. A(C   1,N  13,C  30)          113.06 -0.001223    0.36    113.41   
   114. A(C   1,N  13,C  14)          122.83 -0.001659   -0.58    122.26   
   115. A(C  14,N  13,C  30)          123.65  0.002880    0.11    123.76   
   116. A(N  13,C  14,C  15)          115.77  0.000016    0.07    115.83   
   117. A(H  42,C  14,H  43)          107.75 -0.000008    0.12    107.88   
   118. A(C  15,C  14,H  43)          109.09  0.000727   -0.71    108.38   
   119. A(N  13,C  14,H  43)          107.21 -0.001063   -0.16    107.05   
   120. A(C  15,C  14,H  42)          110.14  0.000118    0.46    110.60   
   121. A(N  13,C  14,H  42)          106.57  0.000166    0.24    106.81   
   122. A(H  44,C  15,H  45)          106.65 -0.000913    0.21    106.86   
   123. A(C  14,C  15,C  16)          116.88 -0.004330    1.08    117.96   
   124. A(C  16,C  15,H  45)          108.93  0.000606   -0.19    108.74   
   125. A(C  14,C  15,H  45)          105.59  0.001291   -0.12    105.48   
   126. A(C  16,C  15,H  44)          108.65  0.002065   -0.55    108.10   
   127. A(C  14,C  15,H  44)          109.65  0.001444   -0.48    109.17   
   128. A(C  17,C  16,H  47)          109.46  0.002377   -0.39    109.06   
   129. A(H  46,C  16,H  47)          106.09 -0.000687   -0.14    105.94   
   130. A(C  15,C  16,H  47)          108.24  0.004472   -0.61    107.63   
   131. A(C  17,C  16,H  46)          107.14  0.003403    0.14    107.27   
   132. A(C  15,C  16,H  46)          109.96  0.003015   -0.05    109.91   
   133. A(C  15,C  16,C  17)          115.56 -0.011802    1.00    116.55   
   134. A(C  16,C  17,O  18)          110.15 -0.005834   -0.12    110.03   
   135. A(O  18,C  17,H  49)          108.97 -0.001883    0.96    109.93   
   136. A(C  16,C  17,H  49)          110.39 -0.001138    0.19    110.58   
   137. A(O  18,C  17,H  48)          110.24  0.000736   -0.12    110.13   
   138. A(C  16,C  17,H  48)          110.28  0.006412   -0.91    109.37   
   139. A(H  48,C  17,H  49)          106.75  0.001877    0.02    106.77   
   140. A(C  17,O  18,C  19)          115.16 -0.005083    0.90    116.05   
   141. A(O  18,C  19,C  20)          111.44 -0.004984    0.28    111.72   
   142. A(C  28,C  19,H  50)          108.31 -0.000464    0.05    108.37   
   143. A(C  20,C  19,H  50)          108.77  0.000989    0.21    108.97   
   144. A(O  18,C  19,H  50)          109.48 -0.000789    0.06    109.54   
   145. A(C  20,C  19,C  28)          108.99  0.001040   -0.05    108.94   
   146. A(O  18,C  19,C  28)          109.79  0.004294   -0.55    109.24   
   147. A(O  21,C  20,C  22)          111.27  0.001925    0.05    111.32   
   148. A(C  19,C  20,C  22)          109.32 -0.001010    0.01    109.33   
   149. A(C  19,C  20,O  21)          113.68 -0.000480   -0.04    113.64   
   150. A(O  21,C  20,H  51)          105.68 -0.000362   -0.05    105.62   
   151. A(C  19,C  20,H  51)          108.54  0.000862   -0.10    108.44   
   152. A(C  22,C  20,H  51)          108.12 -0.000958    0.15    108.26   
   153. A(C  20,O  21,H  52)          113.42  0.002124    0.26    113.68   
   154. A(O  25,C  22,H  53)          110.06 -0.000348    0.14    110.20   
   155. A(C  23,C  22,H  53)          108.26  0.000289   -0.30    107.96   
   156. A(C  20,C  22,H  53)          109.21 -0.000068    0.03    109.24   
   157. A(C  23,C  22,O  25)          106.71  0.000210   -0.21    106.50   
   158. A(C  20,C  22,O  25)          109.24  0.000270    0.13    109.38   
   159. A(C  20,C  22,C  23)          113.32 -0.000360    0.20    113.52   
   160. A(H  54,C  23,H  55)          107.61  0.000049   -0.15    107.46   
   161. A(C  22,C  23,H  55)          109.35  0.000571   -0.08    109.27   
   162. A(O  24,C  23,H  54)          107.48  0.000137   -0.08    107.40   
   163. A(C  22,C  23,H  54)          108.34  0.000400   -0.32    108.02   
   164. A(O  24,C  23,H  55)          111.47 -0.000603    0.29    111.76   
   165. A(C  22,C  23,O  24)          112.41 -0.000512    0.30    112.71   
   166. A(C  23,O  24,H  56)          107.80 -0.002477    1.00    108.81   
   167. A(C  22,O  25,C  26)          114.42 -0.000107    0.61    115.03   
   168. A(C  28,C  26,H  57)          109.59  0.000334   -0.07    109.52   
   169. A(O  27,C  26,H  57)          110.26 -0.000264    0.03    110.28   
   170. A(O  25,C  26,H  57)          109.57  0.000006    0.19    109.76   
   171. A(O  27,C  26,C  28)          111.56  0.000148   -0.18    111.38   
   172. A(O  25,C  26,C  28)          109.09 -0.000344   -0.37    108.73   
   173. A(O  25,C  26,O  27)          106.72  0.000107    0.41    107.13   
   174. A(C  26,O  27,H  58)          107.96 -0.000291    0.16    108.12   
   175. A(O  29,C  28,H  59)          110.35 -0.000188   -0.01    110.34   
   176. A(C  26,C  28,H  59)          107.66  0.000318   -0.26    107.40   
   177. A(C  19,C  28,H  59)          109.23  0.000002   -0.06    109.17   
   178. A(C  26,C  28,O  29)          107.40  0.000196    0.19    107.60   
   179. A(C  19,C  28,O  29)          111.95  0.000119   -0.05    111.89   
   180. A(C  19,C  28,C  26)          110.16 -0.000441    0.18    110.33   
   181. A(C  28,O  29,H  60)          108.79 -0.000457    0.15    108.95   
   182. A(N  13,C  30,O  31)          125.17  0.001006    0.52    125.69   
   183. A(C   4,C  30,O  31)          126.03 -0.001316   -0.28    125.75   
   184. A(C   4,C  30,N  13)          108.79  0.000301   -0.24    108.55   
   185. D(C   9,C   2,C   1,O   0)     62.05 -0.000062   -2.05     60.00   
   186. D(H   3,C   2,C   1,N  13)    119.32  0.000788   -0.68    118.64   
   187. D(H   3,C   2,C   1,O   0)    -61.18 -0.000133   -1.96    -63.14   
   188. D(C   4,C   2,C   1,N  13)     -0.77  0.000780   -0.54     -1.31   
   189. D(C   4,C   2,C   1,O   0)    178.74 -0.000141   -1.83    176.91   
   190. D(C   5,C   4,C   2,H   3)    122.08 -0.000204    0.79    122.87   
   191. D(H  12,C   4,C   2,H   3)      2.06 -0.000289    1.03      3.09   
   192. D(C   5,C   4,C   2,C   1)   -120.80 -0.000346    0.50   -120.30   
   193. D(H  12,C   4,C   2,C   1)    119.18 -0.000430    0.74    119.92   
   194. D(H  12,C   4,C   2,C   9)   -118.75 -0.000252    1.08   -117.66   
   195. D(C   5,C   4,C   2,C   9)      1.27 -0.000167    0.84      2.11   
   196. D(C   6,C   5,C   4,C  30)    -21.57  0.000042    0.04    -21.53   
   197. D(C   8,C   5,C   4,C  30)   -141.83  0.000098   -0.45   -142.29   
   198. D(C   8,C   5,C   4,C   2)    -25.38  0.000155   -0.37    -25.75   
   199. D(C   6,C   5,C   4,C   2)     94.88  0.000099    0.13     95.01   
   200. D(C   6,C   5,C   4,H  12)   -143.21  0.000070    0.14   -143.06   
   201. D(C   8,C   5,C   4,H  12)     96.53  0.000125   -0.35     96.18   
   202. D(C   7,C   6,C   5,C   8)   -126.18  0.000097   -1.20   -127.38   
   203. D(H  33,C   6,C   5,C   4)    -61.53  0.000386   -1.77    -63.30   
   204. D(C   7,C   6,C   5,C   4)    119.31  0.000269   -1.53    117.78   
   205. D(C   7,C   6,C   5,H  32)     -3.31  0.000284   -1.28     -4.59   
   206. D(H  33,C   6,C   5,C   8)     52.98  0.000214   -1.44     51.54   
   207. D(H  35,C   7,C   6,C   5)     -1.01  0.000033   -0.02     -1.03   
   208. D(H  34,C   7,C   6,H  33)      0.74  0.000160   -0.26      0.48   
   209. D(H  34,C   7,C   6,C   5)    179.89  0.000278   -0.51    179.38   
   210. D(H  35,C   7,C   6,H  33)    179.84 -0.000085    0.23    180.07   
   211. D(H  36,C   8,C   5,C   4)    -76.43 -0.000032   -0.26    -76.69   
   212. D(H  36,C   8,C   5,C   6)    161.34  0.000171   -0.57    160.76   
   213. D(C   9,C   8,C   5,H  32)    157.45 -0.000035   -0.46    156.99   
   214. D(C   9,C   8,C   5,C   6)    -81.47  0.000139   -0.57    -82.04   
   215. D(C   9,C   8,C   5,C   4)     40.76 -0.000064   -0.25     40.51   
   216. D(H  36,C   8,C   5,H  32)     40.25 -0.000002   -0.46     39.79   
   217. D(C  10,C   9,C   8,H  37)     72.31 -0.000176    0.80     73.11   
   218. D(C  10,C   9,C   8,C   5)   -164.94 -0.000150    0.89   -164.05   
   219. D(C   2,C   9,C   8,H  37)   -163.03 -0.000076    0.69   -162.35   
   220. D(C   2,C   9,C   8,H  36)     76.69 -0.000019    0.81     77.50   
   221. D(C   2,C   9,C   8,C   5)    -40.28 -0.000051    0.77    -39.51   
   222. D(C  10,C   9,C   2,C   4)    151.33  0.000415   -1.09    150.24   
   223. D(C  10,C   9,C   2,C   1)    -93.30  0.000152   -0.86    -94.16   
   224. D(C   8,C   9,C   2,C   4)     23.59  0.000123   -0.98     22.61   
   225. D(C   8,C   9,C   2,H   3)    -98.81 -0.000014   -0.94    -99.75   
   226. D(C  10,C   9,C   8,H  36)    -47.97 -0.000119    0.93    -47.04   
   227. D(C   8,C   9,C   2,C   1)    138.96 -0.000140   -0.74    138.21   
   228. D(C  10,C   9,C   2,H   3)     28.93  0.000278   -1.06     27.88   
   229. D(H  39,C  10,C   9,C   8)    174.21 -0.000024    0.34    174.55   
   230. D(H  39,C  10,C   9,C   2)     54.96 -0.000120    0.34     55.31   
   231. D(C  11,C  10,C   9,H  38)    115.54  0.000057    0.09    115.63   
   232. D(C  11,C  10,C   9,C   8)     -6.58 -0.000019    0.23     -6.35   
   233. D(C  11,C  10,C   9,C   2)   -125.82 -0.000114    0.23   -125.59   
   234. D(H  41,C  11,C  10,H  39)    179.36 -0.000018    0.02    179.39   
   235. D(H  41,C  11,C  10,C   9)      0.18 -0.000032    0.15      0.33   
   236. D(H  40,C  11,C  10,H  39)     -0.26 -0.000005   -0.00     -0.26   
   237. D(H  40,C  11,C  10,C   9)   -179.44 -0.000019    0.12   -179.32   
   238. D(C  30,N  13,C   1,C   2)     -2.40 -0.000475    0.38     -2.02   
   239. D(C  30,N  13,C   1,O   0)    178.07  0.000411    1.62    179.70   
   240. D(C  14,N  13,C   1,C   2)   -174.88 -0.000692    1.37   -173.51   
   241. D(C  14,N  13,C   1,O   0)      5.60  0.000194    2.61      8.20   
   242. D(H  43,C  14,N  13,C   1)     52.40  0.000717   -1.51     50.89   
   243. D(H  42,C  14,N  13,C  30)     -4.11  0.000400   -0.25     -4.35   
   244. D(H  42,C  14,N  13,C   1)    167.57  0.000284   -1.33    166.24   
   245. D(C  15,C  14,N  13,C  30)    118.75  0.000692    0.57    119.31   
   246. D(C  15,C  14,N  13,C   1)    -69.58  0.000575   -0.51    -70.09   
   247. D(C  16,C  15,C  14,N  13)    -51.24 -0.001298   -0.56    -51.81   
   248. D(H  44,C  15,C  14,H  43)    -48.05  0.000214   -0.17    -48.22   
   249. D(H  44,C  15,C  14,H  42)   -166.12 -0.000282   -0.16   -166.28   
   250. D(H  44,C  15,C  14,N  13)     72.93 -0.000606   -0.88     72.05   
   251. D(C  16,C  15,C  14,H  43)   -172.22 -0.000478    0.15   -172.08   
   252. D(C  16,C  15,C  14,H  42)     69.71 -0.000974    0.15     69.86   
   253. D(H  46,C  16,C  15,H  45)   -166.36 -0.001323    0.48   -165.87   
   254. D(H  46,C  16,C  15,H  44)    -50.54 -0.000956    0.33    -50.22   
   255. D(H  46,C  16,C  15,C  14)     74.14 -0.000539    0.04     74.18   
   256. D(C  17,C  16,C  15,H  45)     72.23  0.000294   -0.35     71.88   
   257. D(C  17,C  16,C  15,H  44)   -171.95  0.000662   -0.51   -172.46   
   258. D(C  17,C  16,C  15,C  14)    -47.27  0.001078   -0.80    -48.07   
   259. D(H  48,C  17,C  16,H  47)    -53.93 -0.002148    0.92    -53.01   
   260. D(H  48,C  17,C  16,H  46)     60.68  0.000041    0.63     61.31   
   261. D(H  48,C  17,C  16,C  15)   -176.40 -0.001415    1.32   -175.09   
   262. D(O  18,C  17,C  16,H  47)     67.97 -0.000850    0.09     68.06   
   263. D(O  18,C  17,C  16,H  46)   -177.42  0.001338   -0.20   -177.62   
   264. D(O  18,C  17,C  16,C  15)    -54.50 -0.000117    0.48    -54.02   
   265. D(C  19,O  18,C  17,H  49)     45.03 -0.002455    4.36     49.39   
   266. D(C  19,O  18,C  17,H  48)    -71.82 -0.004040    3.86    -67.96   
   267. D(C  19,O  18,C  17,C  16)    166.26 -0.008704    5.15    171.41   
   268. D(H  50,C  19,O  18,C  17)     -2.10 -0.002902    2.70      0.60   
   269. D(C  28,C  19,O  18,C  17)    116.68 -0.001364    2.47    119.15   
   270. D(C  20,C  19,O  18,C  17)   -122.47 -0.000427    2.22   -120.24   
   271. D(C  22,C  20,C  19,H  50)     63.88  0.000035    0.71     64.59   
   272. D(C  22,C  20,C  19,C  28)    -54.02 -0.000562    0.56    -53.46   
   273. D(C  22,C  20,C  19,O  18)   -175.33 -0.003432    1.10   -174.23   
   274. D(O  21,C  20,C  19,H  50)    -61.12 -0.001358    0.67    -60.45   
   275. D(O  21,C  20,C  19,C  28)   -179.01 -0.001954    0.51   -178.50   
   276. D(O  21,C  20,C  19,O  18)     59.67 -0.004824    1.06     60.73   
   277. D(H  52,O  21,C  20,H  51)    153.40 -0.001084    0.28    153.68   
   278. D(H  52,O  21,C  20,C  22)    -89.48 -0.001444    0.44    -89.04   
   279. D(H  52,O  21,C  20,C  19)     34.47 -0.001635    0.47     34.94   
   280. D(O  25,C  22,C  20,H  51)    -61.58 -0.000105   -0.72    -62.31   
   281. D(O  25,C  22,C  20,O  21)   -177.20 -0.000162   -0.77   -177.97   
   282. D(O  25,C  22,C  20,C  19)     56.41 -0.000182   -0.76     55.65   
   283. D(C  23,C  22,C  20,H  51)     57.24  0.000116   -0.77     56.47   
   284. D(C  23,C  22,C  20,O  21)    -58.38  0.000059   -0.82    -59.20   
   285. D(C  23,C  22,C  20,C  19)    175.23  0.000038   -0.81    174.42   
   286. D(H  54,C  23,C  22,H  53)     67.42  0.000002   -0.25     67.17   
   287. D(H  54,C  23,C  22,O  25)    -51.01  0.000148   -0.14    -51.16   
   288. D(H  54,C  23,C  22,C  20)   -171.29 -0.000113   -0.29   -171.58   
   289. D(O  24,C  23,C  22,H  53)    -51.20 -0.000119   -0.13    -51.33   
   290. D(O  24,C  23,C  22,O  25)   -169.63  0.000027   -0.02   -169.65   
   291. D(O  24,C  23,C  22,C  20)     70.10 -0.000235   -0.17     69.93   
   292. D(H  56,O  24,C  23,H  55)     72.04  0.000333   -1.59     70.45   
   293. D(H  56,O  24,C  23,H  54)   -170.27  0.000136   -1.65   -171.92   
   294. D(H  56,O  24,C  23,C  22)    -51.15  0.000416   -1.92    -53.07   
   295. D(C  26,O  25,C  22,H  53)     57.14 -0.000171    0.35     57.49   
   296. D(C  26,O  25,C  22,C  23)    174.39  0.000108   -0.05    174.34   
   297. D(C  26,O  25,C  22,C  20)    -62.75 -0.000042    0.14    -62.61   
   298. D(H  57,C  26,O  25,C  22)    -56.91 -0.000276    0.27    -56.64   
   299. D(C  28,C  26,O  25,C  22)     63.06 -0.000074    0.08     63.14   
   300. D(O  27,C  26,O  25,C  22)   -176.28 -0.000026   -0.09   -176.37   
   301. D(H  58,O  27,C  26,H  57)     77.06  0.000408   -1.28     75.78   
   302. D(H  58,O  27,C  26,C  28)    -44.94  0.000066   -1.09    -46.03   
   303. D(H  58,O  27,C  26,O  25)   -164.01  0.000334   -0.80   -164.81   
   304. D(C  19,C  28,C  26,O  25)    -57.74 -0.000124   -0.07    -57.81   
   305. D(O  29,C  28,C  19,H  50)     56.09 -0.000359    0.11     56.20   
   306. D(O  29,C  28,C  19,C  20)    174.27  0.001144    0.36    174.63   
   307. D(O  29,C  28,C  19,O  18)    -63.41 -0.001631    0.32    -63.09   
   308. D(C  26,C  28,C  19,H  50)    -63.35 -0.000388   -0.22    -63.57   
   309. D(C  26,C  28,C  19,C  20)     54.84  0.001115    0.03     54.87   
   310. D(C  19,C  28,C  26,O  27)   -175.39 -0.000128   -0.24   -175.63   
   311. D(C  26,C  28,C  19,O  18)    177.16 -0.001660   -0.00    177.15   
   312. D(O  29,C  28,C  26,H  57)    -59.94 -0.000129   -0.27    -60.20   
   313. D(O  29,C  28,C  26,O  27)     62.45 -0.000133   -0.40     62.05   
   314. D(O  29,C  28,C  26,O  25)   -179.90 -0.000128   -0.23   -180.13   
   315. D(C  19,C  28,C  26,H  57)     62.22 -0.000125   -0.10     62.12   
   316. D(H  60,O  29,C  28,H  59)    -50.20  0.000293   -0.53    -50.74   
   317. D(H  60,O  29,C  28,C  26)   -167.28 -0.000098   -0.34   -167.62   
   318. D(H  60,O  29,C  28,C  19)     71.68  0.000246   -0.65     71.03   
   319. D(O  31,C  30,N  13,C   1)   -174.44  0.000600    1.36   -173.09   
   320. D(C   4,C  30,N  13,C  14)    177.03 -0.000206   -1.11    175.92   
   321. D(C   4,C  30,N  13,C   1)      4.62 -0.000026   -0.06      4.56   
   322. D(O  31,C  30,C   4,C   5)    -68.08 -0.000104   -1.59    -69.67   
   323. D(O  31,C  30,C   4,C   2)    174.27 -0.000144   -1.71    172.57   
   324. D(N  13,C  30,C   4,H  12)   -124.31  0.000405   -0.48   -124.79   
   325. D(N  13,C  30,C   4,C   5)    112.87  0.000501   -0.14    112.73   
   326. D(O  31,C  30,N  13,C  14)     -2.04  0.000420    0.31     -1.73   
   327. D(N  13,C  30,C   4,C   2)     -4.78  0.000461   -0.27     -5.04   
    ----------------------------------------------------------------------------

Geometry step timings:
Preparation and reading OPT file:      0.001 s ( 5.281 %)
Internal coordinates            :      0.000 s ( 0.170 %)
B/P matrices and projection     :      0.011 s (40.524 %)
Hessian update/contruction      :      0.004 s (13.413 %)
Making the step                 :      0.007 s (25.978 %)
Converting the step to Cartesian:      0.001 s ( 3.660 %)
Storing new data                :      0.000 s ( 0.940 %)
Checking convergence            :      0.000 s ( 0.194 %)
Final printing                  :      0.003 s ( 9.831 %)
Total time                      :      0.028 s

Time for energy+gradient        :    610.622 s
Time for complete geometry iter :    610.725 s

         *************************************************************
         *                GEOMETRY OPTIMIZATION CYCLE   4            *
         *************************************************************
---------------------------------
CARTESIAN COORDINATES (ANGSTROEM)
---------------------------------
  O     -2.781826    2.740921    1.712911
  C     -2.552483    1.580276    1.620754
  C     -3.561949    0.448408    1.631816
  H     -4.054055    0.451008    2.596508
  C     -2.723204   -0.821243    1.402351
  C     -3.257052   -1.488520    0.095931
  C     -2.492817   -1.117883   -1.154385
  C     -1.828231   -1.964701   -1.915847
  C     -4.713295   -0.970254    0.056687
  C     -4.621046    0.500146    0.496263
  C     -5.896601    1.186752    0.914661
  C     -7.117014    0.695310    0.836111
  H     -2.806118   -1.526005    2.219904
  N     -1.289978    1.040968    1.442536
  C     -0.071958    1.851843    1.524176
  C      0.150512    2.846116    0.378252
  C      0.070348    2.316684   -1.061100
  C      0.849855    1.044824   -1.361509
  O      2.192959    1.199907   -0.981536
  C      2.978832    0.041668   -1.029626
  C      3.559328   -0.304417    0.341409
  O      2.585238   -0.551118    1.317577
  C      4.524554   -1.495537    0.199888
  C      5.263592   -1.836851    1.492091
  O      4.425984   -2.384001    2.461004
  O      5.507466   -1.187702   -0.752575
  C      5.033248   -0.968550   -2.031443
  O      6.125695   -0.764849   -2.838872
  C      4.122451    0.250902   -2.012746
  O      3.657831    0.453251   -3.320452
  C     -1.286549   -0.333073    1.371509
  O     -0.313884   -1.025672    1.338085
  H     -3.227110   -2.565200    0.200707
  H     -2.514173   -0.078490   -1.445373
  H     -1.314109   -1.631673   -2.798659
  H     -1.765599   -3.014637   -1.687362
  H     -5.309313   -1.525892    0.775375
  H     -5.169931   -1.095032   -0.917880
  H     -4.211970    1.081448   -0.326414
  H     -5.755172    2.183806    1.298926
  H     -7.966465    1.273029    1.153087
  H     -7.328024   -0.288027    0.453598
  H      0.752487    1.165468    1.593747
  H     -0.121635    2.406467    2.451451
  H     -0.552591    3.665395    0.474378
  H      1.140029    3.258864    0.542781
  H     -0.966135    2.129647   -1.330876
  H      0.413421    3.107459   -1.721454
  H      0.784442    0.824699   -2.424960
  H      0.415456    0.202097   -0.841756
  H      2.375087   -0.793469   -1.378556
  H      4.122683    0.548201    0.700296
  H      1.805556   -0.980622    0.980438
  H      3.963796   -2.377587   -0.109668
  H      6.017357   -2.576215    1.261097
  H      5.777569   -0.949353    1.857370
  H      3.685046   -1.803398    2.588040
  H      4.469407   -1.839879   -2.370347
  H      5.822688   -0.383758   -3.655358
  H      4.720131    1.097623   -1.689379
  H      3.248743    1.307740   -3.373273

----------------------------
CARTESIAN COORDINATES (A.U.)
----------------------------
  NO LB      ZA    FRAG     MASS         X           Y           Z
   0 O     8.0000    0    15.999   -5.256889    5.179591    3.236932
   1 C     6.0000    0    12.011   -4.823494    2.986289    3.062780
   2 C     6.0000    0    12.011   -6.731108    0.847368    3.083686
   3 H     1.0000    0     1.008   -7.661054    0.852282    4.906689
   4 C     6.0000    0    12.011   -5.146109   -1.551925    2.650058
   5 C     6.0000    0    12.011   -6.154937   -2.812894    0.181282
   6 C     6.0000    0    12.011   -4.710742   -2.112493   -2.181471
   7 C     6.0000    0    12.011   -3.454856   -3.712748   -3.620427
   8 C     6.0000    0    12.011   -8.906837   -1.833515    0.107123
   9 C     6.0000    0    12.011   -8.732512    0.945138    0.937801
  10 C     6.0000    0    12.011  -11.142961    2.242636    1.728459
  11 C     6.0000    0    12.011  -13.449207    1.313945    1.580021
  12 H     1.0000    0     1.008   -5.302794   -2.883731    4.195011
  13 N     7.0000    0    14.007   -2.437706    1.967144    2.725998
  14 C     6.0000    0    12.011   -0.135980    3.499477    2.880276
  15 C     6.0000    0    12.011    0.284427    5.378379    0.714792
  16 C     6.0000    0    12.011    0.132939    4.377898   -2.005188
  17 C     6.0000    0    12.011    1.605993    1.974431   -2.572880
  18 O     8.0000    0    15.999    4.144092    2.267495   -1.854834
  19 C     6.0000    0    12.011    5.629177    0.078741   -1.945711
  20 C     6.0000    0    12.011    6.726155   -0.575265    0.645170
  21 O     8.0000    0    15.999    4.885391   -1.041463    2.489860
  22 C     6.0000    0    12.011    8.550167   -2.826156    0.377734
  23 C     6.0000    0    12.011    9.946747   -3.471145    2.819643
  24 O     8.0000    0    15.999    8.363897   -4.505109    4.650623
  25 O     8.0000    0    15.999   10.407602   -2.244432   -1.422160
  26 C     6.0000    0    12.011    9.511459   -1.830293   -3.838872
  27 O     8.0000    0    15.999   11.575885   -1.445355   -5.364691
  28 C     6.0000    0    12.011    7.790303    0.474136   -3.803538
  29 O     8.0000    0    15.999    6.912299    0.856520   -6.274745
  30 C     6.0000    0    12.011   -2.431224   -0.629416    2.591776
  31 O     8.0000    0    15.999   -0.593156   -1.938239    2.528614
  32 H     1.0000    0     1.008   -6.098355   -4.847526    0.379280
  33 H     1.0000    0     1.008   -4.751098   -0.148326   -2.731358
  34 H     1.0000    0     1.008   -2.483306   -3.083415   -5.288698
  35 H     1.0000    0     1.008   -3.336498   -5.696838   -3.188652
  36 H     1.0000    0     1.008  -10.033147   -2.883518    1.465247
  37 H     1.0000    0     1.008   -9.769754   -2.069311   -1.734542
  38 H     1.0000    0     1.008   -7.959471    2.043641   -0.616832
  39 H     1.0000    0     1.008  -10.875699    4.126795    2.454614
  40 H     1.0000    0     1.008  -15.054437    2.405675    2.179019
  41 H     1.0000    0     1.008  -13.847959   -0.544292    0.857177
  42 H     1.0000    0     1.008    1.421995    2.202415    3.011746
  43 H     1.0000    0     1.008   -0.229856    4.547563    4.632571
  44 H     1.0000    0     1.008   -1.044246    6.926593    0.896444
  45 H     1.0000    0     1.008    2.154343    6.158360    1.025708
  46 H     1.0000    0     1.008   -1.825731    4.024449   -2.514992
  47 H     1.0000    0     1.008    0.781252    5.872247   -3.253076
  48 H     1.0000    0     1.008    1.482380    1.558455   -4.582510
  49 H     1.0000    0     1.008    0.785098    0.381909   -1.590687
  50 H     1.0000    0     1.008    4.488264   -1.499439   -2.605094
  51 H     1.0000    0     1.008    7.790742    1.035950    1.323367
  52 H     1.0000    0     1.008    3.412007   -1.853107    1.852760
  53 H     1.0000    0     1.008    7.490490   -4.492987   -0.207243
  54 H     1.0000    0     1.008   11.371157   -4.868342    2.383127
  55 H     1.0000    0     1.008   10.918024   -1.794017    3.509920
  56 H     1.0000    0     1.008    6.963728   -3.407928    4.890687
  57 H     1.0000    0     1.008    8.445955   -3.476867   -4.479307
  58 H     1.0000    0     1.008   11.003285   -0.725197   -6.907625
  59 H     1.0000    0     1.008    8.919754    2.074207   -3.192464
  60 H     1.0000    0     1.008    6.139234    2.471271   -6.374562

--------------------------------
INTERNAL COORDINATES (ANGSTROEM)
--------------------------------
 O      0   0   0     0.000000000000     0.00000000     0.00000000
 C      1   0   0     1.186671458867     0.00000000     0.00000000
 C      2   1   0     1.516663946433   126.92146486     0.00000000
 H      3   2   1     1.082961120679   107.88768154   296.86979729
 C      3   2   1     1.538883408063   104.58812935   176.91659061
 C      5   3   2     1.561084577755   106.92149358   239.69487817
 C      6   5   3     1.511527296991   114.48972840    95.00490096
 C      7   6   5     1.318560081828   125.10345735   117.78546188
 C      6   5   3     1.546215413705   101.53939859   334.25237462
 C      9   6   5     1.537469655484   104.88001913    40.50917970
 C     10   9   6     1.507821263436   117.65045571   195.94633027
 C     11  10   9     1.317988619783   126.65527686   353.64701829
 H      5   3   2     1.082569797955   112.50468148   119.91768985
 N      2   1   3     1.384388812692   124.55990802   177.96111425
 C     14   2   1     1.465523257716   122.35924218     8.22967076
 C     15  14   2     1.533366933092   115.95885729   289.88823582
 C     16  15  14     1.535727055830   117.98974887   308.27283204
 C     17  16  15     1.521677999399   116.51527573   312.08942029
 O     18  17  16     1.404406875362   110.13277918   306.11882365
 C     19  18  17     1.400509408740   115.85060760   171.37506604
 C     20  19  18     1.528557450435   111.68770830   239.87194492
 O     21  20  19     1.400934713079   113.62842757    60.70345452
 C     21  20  19     1.539628513480   109.31734104   185.73582488
 C     23  21  20     1.527239318967   113.48404350   174.43735551
 O     24  23  21     1.392749571316   112.66821762    69.91577726
 O     23  21  20     1.402877121183   109.38363815    55.64509701
 C     26  23  21     1.381454383442   115.01254220   297.38270887
 O     27  26  23     1.373635938967   107.13801823   183.62552228
 C     27  26  23     1.522157009682   108.73073908    63.15484366
 O     29  27  26     1.402466317749   107.59961841   179.86639531
 C     14   2   1     1.375879312878   113.45085458   179.69958360
 O     31  14   2     1.194523555970   125.62739727   186.92929370
 H      6   5   3     1.082180863949   109.55945484   216.56630863
 H      7   6   5     1.079568127755   116.68213805   296.69917938
 H      8   7   6     1.074516302886   121.10282383   179.37326612
 H      8   7   6     1.076333262065   122.22302553   358.96954549
 H      9   6   5     1.086500392616   109.17439414   283.31145521
 H      9   6   5     1.083451237961   112.40603240   163.80420391
 H     10   9   6     1.087222160088   108.51654897    74.97995209
 H     11  10   9     1.077858011814   114.15150124   174.54919852
 H     12  11  10     1.075081137298   120.90976922   180.67873817
 H     12  11  10     1.076007448724   122.92443482     0.33110871
 H     15  14   2     1.075016469023   106.72204433   166.24598119
 H     15  14   2     1.081625101401   107.05571620    50.92938129
 H     16  15  14     1.083888181629   109.25251851    72.14186148
 H     16  15  14     1.084700188201   105.41067257   186.70313894
 H     17  16  15     1.087225967866   109.97626899    74.28652127
 H     17  16  15     1.085859890816   107.60325720   189.30823525
 H     18  17  16     1.087961743607   109.34669050   184.96250923
 H     18  17  16     1.081219249003   110.53307025    67.73802948
 H     20  19  18     1.087986079878   109.53862748     0.65687588
 H     21  20  19     1.083109240747   108.45130434   303.57771260
 H     22  21  20     0.951860476932   113.71595544    34.91628511
 H     23  21  20     1.090084795628   109.24458282   294.95450594
 H     24  23  21     1.080824105174   108.03058377   188.41361311
 H     24  23  21     1.088694003789   109.27820365   305.04301417
 H     25  24  23     0.949856376344   108.78608914   306.94125961
 H     27  26  23     1.091781266205   109.75733218   303.37201145
 H     28  27  26     0.950627127521   108.10818881   195.19008555
 H     29  27  26     1.085690647749   107.40086682    61.08029350
 H     30  29  27     0.948838990865   108.94589535   192.37769987

---------------------------
INTERNAL COORDINATES (A.U.)
---------------------------
 O      0   0   0     0.000000000000     0.00000000     0.00000000
 C      1   0   0     2.242484068200     0.00000000     0.00000000
 C      2   1   0     2.866079495951   126.92146486     0.00000000
 H      3   2   1     2.046499931768   107.88768154   296.86979729
 C      3   2   1     2.908068193275   104.58812935   176.91659061
 C      5   3   2     2.950022323844   106.92149358   239.69487817
 C      6   5   3     2.856372635260   114.48972840    95.00490096
 C      7   6   5     2.491717445775   125.10345735   117.78546188
 C      6   5   3     2.921923675951   101.53939859   334.25237462
 C      9   6   5     2.905396588079   104.88001913    40.50917970
 C     10   9   6     2.849369246797   117.65045571   195.94633027
 C     11  10   9     2.490637539015   126.65527686   353.64701829
 H      5   3   2     2.045760438989   112.50468148   119.91768985
 N      2   1   3     2.616115718853   124.55990802   177.96111425
 C     14   2   1     2.769437599976   122.35924218     8.22967076
 C     15  14   2     2.897643566355   115.95885729   289.88823582
 C     16  15  14     2.902103551972   117.98974887   308.27283204
 C     17  16  15     2.875554682876   116.51527573   312.08942029
 O     18  17  16     2.653944375029   110.13277918   306.11882365
 C     19  18  17     2.646579230498   115.85060760   171.37506604
 C     20  19  18     2.888554961286   111.68770830   239.87194492
 O     21  20  19     2.647382939222   113.62842757    60.70345452
 C     21  20  19     2.909476238453   109.31734104   185.73582488
 C     23  21  20     2.886064053805   113.48404350   174.43735551
 O     24  23  21     2.631915262923   112.66821762    69.91577726
 O     23  21  20     2.651053558580   109.38363815    55.64509701
 C     26  23  21     2.610570451211   115.01254220   297.38270887
 O     27  26  23     2.595795732359   107.13801823   183.62552228
 C     27  26  23     2.876459881128   108.73073908    63.15484366
 O     29  27  26     2.650277252595   107.59961841   179.86639531
 C     14   2   1     2.600035094667   113.45085458   179.69958360
 O     31  14   2     2.257322381302   125.62739727   186.92929370
 H      6   5   3     2.045025460234   109.55945484   216.56630863
 H      7   6   5     2.040088104366   116.68213805   296.69917938
 H      8   7   6     2.030541538888   121.10282383   179.37326612
 H      8   7   6     2.033975094132   122.22302553   358.96954549
 H      9   6   5     2.053188186443   109.17439414   283.31145521
 H      9   6   5     2.047426119204   112.40603240   163.80420391
 H     10   9   6     2.054552129296   108.51654897    74.97995209
 H     11  10   9     2.036856453582   114.15150124   174.54919852
 H     12  11  10     2.031608921238   120.90976922   180.67873817
 H     12  11  10     2.033359396149   122.92443482     0.33110871
 H     15  14   2     2.031486715909   106.72204433   166.24598119
 H     15  14   2     2.043975221222   107.05571620    50.92938129
 H     16  15  14     2.048251823073   109.25251851    72.14186148
 H     16  15  14     2.049786293113   105.41067257   186.70313894
 H     17  16  15     2.054559324954   109.97626899    74.28652127
 H     17  16  15     2.051977813451   107.60325720   189.30823525
 H     18  17  16     2.055949739601   109.34669050   184.96250923
 H     18  17  16     2.043208271340   110.53307025    67.73802948
 H     20  19  18     2.055995728489   109.53862748     0.65687588
 H     21  20  19     2.046779838131   108.45130434   303.57771260
 H     22  21  20     1.798755619106   113.71595544    34.91628511
 H     23  21  20     2.059961726488   109.24458282   294.95450594
 H     24  23  21     2.042461557720   108.03058377   188.41361311
 H     24  23  21     2.057333510804   109.27820365   305.04301417
 H     25  24  23     1.794968417850   108.78608914   306.94125961
 H     27  26  23     2.063167591274   109.75733218   303.37201145
 H     28  27  26     1.796424926491   108.10818881   195.19008555
 H     29  27  26     2.051657990406   107.40086682    61.08029350
 H     30  29  27     1.793045837921   108.94589535   192.37769987

------------------------------------------------------------------------------
                   ___                                                        
                  /   \      - P O W E R E D   B Y -                         
                 /     \                                                     
                 |  |  |   _    _      __       _____    __    __             
                 |  |  |  | |  | |    /  \     |  _  \  |  |  /  |          
                  \  \/   | |  | |   /    \    | | | |  |  | /  /          
                 / \  \   | |__| |  /  /\  \   | |_| |  |  |/  /          
                |  |  |   |  __  | /  /__\  \  |    /   |      \           
                |  |  |   | |  | | |   __   |  |    \   |  |\   \          
                \     /   | |  | | |  |  |  |  | |\  \  |  | \   \       
                 \___/    |_|  |_| |__|  |__|  |_| \__\ |__|  \__/        
                                                                              
                      - O R C A' S   B I G   F R I E N D -                    
                                      &                                       
                       - I N T E G R A L  F E E D E R -                       
                                                                              
 v1 FN, 2020, v2 2021, v3 2022-2024                                           
------------------------------------------------------------------------------


----------------------
SHARK INTEGRAL PACKAGE
----------------------

Number of atoms                             ...     61
Number of basis functions                   ...    482
Number of shells                            ...    242
Maximum angular momentum                    ...      2
Integral batch strategy                     ... SHARK/LIBINT Hybrid
RI-J (if used) integral strategy            ... SPLIT-RIJ (Revised 2003 algorithm where possible)
Printlevel                                  ...      1
Contraction scheme used                     ... SEGMENTED contraction
Prescreening option                         ... SCHWARTZ
   Thresh                                   ... 2.500e-11
   Tcut                                     ... 2.500e-12
   Tpresel                                  ... 2.500e-12 
Coulomb Range Separation                    ... NOT USED
Exchange Range Separation                   ... NOT USED
Multipole approximations                    ... NOT USED
Finite Nucleus Model                        ... NOT USED
CABS basis                                  ... NOT available
Auxiliary Coulomb fitting basis             ... NOT available
Auxiliary J/K fitting basis                 ... NOT available
Auxiliary Correlation fitting basis         ... NOT available
Auxiliary 'external' fitting basis          ... NOT available

Checking pre-screening integrals            ... done (  0.0 sec) Dimension = 242
Check shell pair data                       ... done (  0.0 sec)
Shell pair information
Shell pair cut-off parameter TPreSel        ...   2.5e-12
Total number of shell pairs                 ...     29403
Shell pairs after pre-screening             ...     18481
Total number of primitive shell pairs       ...    165748
Primitive shell pairs kept                  ...     54875
          la=0 lb=0:   7045 shell pairs
          la=1 lb=0:   6186 shell pairs
          la=1 lb=1:   1371 shell pairs
          la=2 lb=0:   2494 shell pairs
          la=2 lb=1:   1152 shell pairs
          la=2 lb=2:    233 shell pairs

Calculating one electron integrals          ... done (  0.2 sec)
Calculating Nuclear repulsion               ... done (  0.0 sec) ENN=   3234.282645631760 Eh

Diagonalization of the overlap matrix:
Smallest eigenvalue                        ... 1.172e-03
Time for diagonalization                   ...    0.022 sec
Threshold for overlap eigenvalues          ... 1.000e-07
Number of eigenvalues below threshold      ... 0
Time for construction of square roots      ...    0.011 sec
Total time needed                          ...    0.034 sec

-------------------
DFT GRID GENERATION
-------------------

General Integration Accuracy     IntAcc      ... 4.388
Radial Grid Type                 RadialGrid  ... OptM3 with GC (2021)
Angular Grid (max. ang.)         AngularGrid ... 4 (Lebedev-302)
Angular grid pruning method      GridPruning ... 4 (adaptive)
Weight generation scheme         WeightScheme... mBecke (2022)
Basis function cutoff            BFCut       ... 1.0000e-11
Integration weight cutoff        WCut        ... 1.0000e-14
Partially contracted basis set               ... off
Rotationally invariant grid construction     ... off
Angular grids for H and He will be reduced by one unit

Total number of grid points                  ...   276057
Total number of batches                      ...     4345
Average number of points per batch           ...       63
Average number of grid points per atom       ...     4526
Initializing property integral containers    ... done (  0.0 sec)

SHARK setup successfully completed in   4.6 seconds

Maximum memory used throughout the entire STARTUP-calculation: 122.0 MB
Occupation numbers will be reassigned to an Aufbau configuration
             **** ENERGY FILE WAS UPDATED (monomer_hf_opt.en.tmp) ****
Finished Guess after   0.2 sec
Maximum memory used throughout the entire GUESS-calculation: 46.5 MB
----------------------------------------D-I-I-S--------------------------------------------
Iteration    Energy (Eh)           Delta-E    RMSDP     MaxDP     DIISErr   Damp  Time(sec)
-------------------------------------------------------------------------------------------
               ***  Starting incremental Fock matrix formation  ***
    1    -1466.5086932338958832     0.00e+00  2.22e-04  9.91e-03  6.48e-02  0.700  51.9
    2    -1466.5252334279780371    -1.65e-02  2.03e-04  8.92e-03  5.37e-02  0.700  42.0
                               ***Turning on AO-DIIS***
    3    -1466.5391444113633952    -1.39e-02  2.09e-04  9.12e-03  4.34e-02  0.700  41.7
    4    -1466.5502606518889479    -1.11e-02  5.83e-04  2.54e-02  3.27e-02  0.000  41.1
    5    -1466.5844476640436369    -3.42e-02  7.64e-05  2.44e-03  3.86e-03  0.000  43.7
                              *** Initializing SOSCF ***
---------------------------------------S-O-S-C-F--------------------------------------
Iteration    Energy (Eh)           Delta-E    RMSDP     MaxDP     MaxGrad    Time(sec)
--------------------------------------------------------------------------------------
    6    -1466.5846792609549993    -2.32e-04  4.00e-05  1.34e-03  2.14e-03    38.0
               *** Restarting incremental Fock matrix formation ***
    7    -1466.5847314006264241    -5.21e-05  1.57e-05  6.21e-04  3.17e-04    51.5
    8    -1466.5847410982646579    -9.70e-06  1.60e-05  7.24e-04  1.81e-04    33.5
    9    -1466.5847444753349009    -3.38e-06  3.31e-06  1.90e-04  5.33e-05    33.6
   10    -1466.5847447325954818    -2.57e-07  1.05e-06  4.25e-05  1.70e-05    29.3
   11    -1466.5847447655155520    -3.29e-08  7.08e-07  4.35e-05  1.41e-05    25.6
   12    -1466.5847447734790876    -7.96e-09  2.76e-07  1.99e-05  6.00e-06    24.3
                 **** Energy Check signals convergence ****

               *****************************************************
               *                     SUCCESS                       *
               *           SCF CONVERGED AFTER  12 CYCLES          *
               *****************************************************

             **** ENERGY FILE WAS UPDATED (monomer_hf_opt.en.tmp) ****

----------------
TOTAL SCF ENERGY
----------------

Total Energy       :      -1466.58474477347909 Eh          -39907.79978 eV

Components:
Nuclear Repulsion  :       3234.28264563176026 Eh           88009.30509 eV
Electronic Energy  :      -4700.86739040523935 Eh         -127917.10487 eV
One Electron Energy:      -8443.28735787828919 Eh         -229753.52945 eV
Two Electron Energy:       3742.41996747304984 Eh          101836.42458 eV

Virial components:
Potential Energy   :      -2933.25301202962282 Eh          -79817.87232 eV
Kinetic Energy     :       1466.66826725614374 Eh           39910.07254 eV
Virial Ratio       :          1.99994305291488

---------------
SCF CONVERGENCE
---------------

  Last Energy change         ...    7.9635e-09  Tolerance :   1.0000e-08
  Last MAX-Density change    ...    1.9862e-05  Tolerance :   1.0000e-07
  Last RMS-Density change    ...    2.7566e-07  Tolerance :   5.0000e-09
  Last DIIS Error            ...    2.1378e-03  Tolerance :   5.0000e-07
  Last Orbital Gradient      ...    5.9966e-06  Tolerance :   1.0000e-05
  Last Orbital Rotation      ...    2.3005e-05  Tolerance :   1.0000e-05


Total SCF time: 0 days 0 hours 7 min 36 sec 
Finished LeanSCF after 456.2 sec

Maximum memory used throughout the entire LEANSCF-calculation: 48.6 MB

-------------------------   --------------------
FINAL SINGLE POINT ENERGY     -1466.584744773479
-------------------------   --------------------

------------------------------------------------------------------------------
                         ORCA SCF GRADIENT CALCULATION
------------------------------------------------------------------------------

Nuc. rep. gradient        (SHARK) ... done (  0.0 sec)
HCore & Overlap gradient  (SHARK) ... done (  3.0 sec)
Two-electron gradient     (SHARK) ... done (180.6 sec)

------------------
CARTESIAN GRADIENT
------------------

   1   O   :    0.000742955   -0.006958177   -0.003027675
   2   C   :    0.000509031    0.009720852    0.007548780
   3   C   :   -0.000580033    0.000820975    0.000144434
   4   H   :   -0.000200135    0.000428216   -0.000770789
   5   C   :   -0.000540252   -0.001911747    0.001082704
   6   C   :    0.000426611   -0.001322994    0.000533174
   7   C   :    0.001704982   -0.001058364   -0.000700242
   8   C   :    0.000362416    0.000404844   -0.000936533
   9   C   :   -0.001431227   -0.000813939   -0.000520665
  10   C   :   -0.000218126    0.000602348   -0.000618935
  11   C   :   -0.001784114    0.000562022    0.000255129
  12   C   :    0.001222373    0.000857558    0.000159046
  13   H   :   -0.000132290   -0.000109349   -0.000090509
  14   N   :   -0.001562951   -0.001911072    0.000408338
  15   C   :    0.000375969   -0.000688681    0.001578401
  16   C   :    0.000179122    0.000349900    0.000419174
  17   C   :    0.000269567    0.000989378   -0.001641862
  18   C   :    0.001596089   -0.000838751   -0.001116380
  19   O   :    0.000266116   -0.001991401    0.000158620
  20   C   :   -0.002709972    0.000607701   -0.000964410
  21   C   :   -0.000090524    0.001995426    0.001713158
  22   O   :    0.000431499   -0.000712645   -0.000781314
  23   C   :    0.001506088   -0.000645823   -0.001730179
  24   C   :   -0.000399733   -0.001211504    0.001693068
  25   O   :    0.001053560    0.000883521   -0.000779903
  26   O   :   -0.004388610    0.000482125   -0.000679184
  27   C   :    0.005326579   -0.001309154    0.000621820
  28   O   :   -0.003079203   -0.000699776    0.001318061
  29   C   :    0.000878407    0.000697925   -0.000326214
  30   O   :    0.000379825   -0.000720621    0.000722838
  31   C   :    0.004734202    0.001137590   -0.005844544
  32   O   :   -0.001332119   -0.000379365    0.003884779
  33   H   :    0.000177398    0.000292725    0.000125039
  34   H   :    0.000176942    0.000320874   -0.000199070
  35   H   :    0.000018648    0.000525585    0.000942187
  36   H   :    0.000091998   -0.000079482   -0.000158863
  37   H   :   -0.000213231    0.000233426    0.000011169
  38   H   :    0.000087476   -0.000260842    0.000239003
  39   H   :   -0.000655420   -0.000358765    0.000346460
  40   H   :    0.000020939   -0.000259088   -0.000037690
  41   H   :    0.000050072   -0.000050053   -0.000076081
  42   H   :   -0.000239875   -0.000381548   -0.000076231
  43   H   :   -0.000809040    0.001968656    0.000242414
  44   H   :   -0.000493488   -0.000663658   -0.000542276
  45   H   :   -0.000220789    0.000496147    0.000015987
  46   H   :   -0.000171959   -0.000226662   -0.000010970
  47   H   :    0.000338445    0.000245997   -0.000104292
  48   H   :   -0.000290698   -0.000198548    0.000088040
  49   H   :   -0.000698245   -0.000277795    0.000473050
  50   H   :   -0.000157399    0.000309407   -0.001304054
  51   H   :   -0.000013294    0.000734770    0.000375474
  52   H   :   -0.000627767   -0.000424049    0.000435771
  53   H   :   -0.000529190   -0.000784853   -0.001325987
  54   H   :    0.000519111    0.000029303    0.000172635
  55   H   :   -0.000026287    0.000229154   -0.000135971
  56   H   :    0.000427812   -0.000291861    0.000208712
  57   H   :   -0.000262738    0.000091423    0.000047075
  58   H   :    0.000376945    0.000061148   -0.000093297
  59   H   :   -0.000037181    0.000631819   -0.000842547
  60   H   :   -0.000253579   -0.000136345   -0.000262070
  61   H   :   -0.000101705    0.000966093   -0.000265803

Difference to translation invariance:
           :   -0.0000000000    0.0000000000   -0.0000000000

Difference to rotation invariance:
           :    0.0000051492   -0.0000035739    0.0000018592

Norm of the Cartesian gradient     ...    0.0210799702
RMS gradient                       ...    0.0015582762
MAX gradient                       ...    0.0097208521

-------
TIMINGS
-------

Total SCF gradient time     ....      183.656 sec

Densities                   ....       0.005 sec  (  0.0%)
One electron gradient       ....       3.007 sec  (  1.6%)
Two electron gradient       ....     180.644 sec  ( 98.4%)

Maximum memory used throughout the entire SCFGRAD-calculation: 106.4 MB
------------------------------------------------------------------------------
                         ORCA GEOMETRY RELAXATION STEP
------------------------------------------------------------------------------

Reading the OPT-File                    .... done
Getting information on internals        .... done
Copying old internal coords+grads       .... done
Making the new internal coordinates     .... (2022 redundants) done
Validating the new internal coordinates .... (2022 redundants) done
Calculating the B-matrix                .... done
Calculating the G,G- and P matrices     .... done
Transforming gradient to internals      .... done
Projecting the internal gradient        .... done
Number of atoms                         ....  61
Number of internal coordinates          .... 327
Current Energy                          .... -1466.584744773 Eh
Current gradient norm                   ....     0.021079970 Eh/bohr
Maximum allowed component of the step   ....  0.300
Current trust radius                    ....  0.300
Updating the Hessian (BFGS)             .... done
Forming the augmented Hessian           .... done
Diagonalizing the augmented Hessian     .... done
Last element of RFO vector              ....  0.971137035
Lowest eigenvalues of augmented Hessian:
 -0.002701340  0.001005428  0.009342532  0.012198586  0.012400307
Length of the computed step             ....  0.245611312
The final length of the internal step   ....  0.245611312
Converting the step to Cartesian space:
 Initial RMS(Int)=    0.0135823366
Transforming coordinates:
 Iter   0:  RMS(Cart)=    0.1719388703 RMS(Int)=    0.0165985204
 Iter   5:  RMS(Cart)=    0.0000007116 RMS(Int)=    0.0000001975
done
Storing new coordinates                 .... done
The predicted energy change is          ....    -0.001432149
Previously predicted energy change      ....    -0.001568801
Actually observed energy change         ....    -0.000090556
Ratio of predicted to observed change   ....     0.057722885
New trust radius                        ....     0.200000000

                                .--------------------.
          ----------------------|Geometry convergence|-------------------------
          Item                value                   Tolerance       Converged
          ---------------------------------------------------------------------
          Energy change      -0.0000905557            0.0000050000      NO
          RMS gradient        0.0016178790            0.0001000000      NO
          MAX gradient        0.0119816980            0.0003000000      NO
          RMS step            0.0135823366            0.0020000000      NO
          MAX step            0.1077361425            0.0040000000      NO
          ........................................................
          Max(Bonds)      0.0570      Max(Angles)    0.85
          Max(Dihed)        3.35      Max(Improp)    0.00
          ---------------------------------------------------------------------

The optimization has not yet converged - more geometry cycles are needed


    ---------------------------------------------------------------------------
                         Redundant Internal Coordinates
                            (Angstroem and degrees)

        Definition                    Value    dE/dq     Step     New-Value
    ----------------------------------------------------------------------------
     1. B(C   1,O   0)                1.1867 -0.007184  0.0043    1.1910   
     2. B(C   2,C   1)                1.5167  0.002038 -0.0025    1.5142   
     3. B(H   3,C   2)                1.0830 -0.000595  0.0011    1.0841   
     4. B(C   4,C   2)                1.5389  0.001705 -0.0028    1.5361   
     5. B(C   5,C   4)                1.5611 -0.000754 -0.0009    1.5602   
     6. B(C   6,C   5)                1.5115  0.002151 -0.0034    1.5082   
     7. B(C   7,C   6)                1.3186 -0.000253  0.0006    1.3192   
     8. B(C   8,C   5)                1.5462  0.002068 -0.0031    1.5431   
     9. B(C   9,C   8)                1.5375  0.002068 -0.0032    1.5343   
    10. B(C   9,C   2)                1.5537  0.001580 -0.0030    1.5506   
    11. B(C  10,C   9)                1.5078  0.001012 -0.0024    1.5054   
    12. B(C  11,C  10)                1.3180 -0.001115  0.0008    1.3188   
    13. B(H  12,C   4)                1.0826  0.000013  0.0003    1.0829   
    14. B(N  13,C   1)                1.3844  0.001183 -0.0008    1.3836   
    15. B(C  14,N  13)                1.4655 -0.001089 -0.0013    1.4642   
    16. B(C  15,C  14)                1.5334  0.002479 -0.0049    1.5285   
    17. B(C  16,C  15)                1.5357  0.004623 -0.0048    1.5310   
    18. B(C  17,C  16)                1.5217  0.002471 -0.0023    1.5193   
    19. B(O  18,C  17)                1.4044 -0.001194  0.0018    1.4062   
    20. B(C  19,O  18)                1.4005 -0.000992  0.0021    1.4027   
    21. B(C  20,C  19)                1.5286 -0.000023 -0.0013    1.5273   
    22. B(O  21,C  20)                1.4009 -0.001519  0.0015    1.4025   
    23. B(C  22,C  20)                1.5396  0.000881 -0.0020    1.5376   
    24. B(C  23,C  22)                1.5272  0.001147 -0.0020    1.5253   
    25. B(O  24,C  23)                1.3927 -0.001435  0.0023    1.3951   
    26. B(O  25,C  22)                1.4029 -0.001792  0.0016    1.4044   
    27. B(C  26,O  25)                1.3815 -0.001652  0.0021    1.3836   
    28. B(O  27,C  26)                1.3736 -0.002420  0.0030    1.3766   
    29. B(C  28,C  26)                1.5222  0.001380 -0.0012    1.5210   
    30. B(C  28,C  19)                1.5226  0.001099 -0.0014    1.5212   
    31. B(O  29,C  28)                1.4025 -0.000381  0.0009    1.4033   
    32. B(C  30,N  13)                1.3759 -0.000626  0.0001    1.3760   
    33. B(C  30,C   4)                1.5176  0.000055 -0.0009    1.5167   
    34. B(O  31,C  30)                1.1945 -0.001382  0.0026    1.1971   
    35. B(H  32,C   5)                1.0822 -0.000274  0.0008    1.0829   
    36. B(H  33,C   6)                1.0796  0.000359  0.0007    1.0803   
    37. B(H  34,C   7)                1.0745 -0.000536  0.0010    1.0755   
    38. B(H  35,C   7)                1.0763  0.000049  0.0009    1.0773   
    39. B(H  36,C   8)                1.0865  0.000005  0.0004    1.0869   
    40. B(H  37,C   8)                1.0835 -0.000222  0.0007    1.0841   
    41. B(H  38,C   9)                1.0872 -0.000701  0.0012    1.0884   
    42. B(H  39,C  10)                1.0779 -0.000250  0.0011    1.0789   
    43. B(H  40,C  11)                1.0751 -0.000089  0.0009    1.0760   
    44. B(H  41,C  11)                1.0760  0.000423  0.0006    1.0766   
    45. B(H  42,C  14)                1.0750 -0.001862  0.0013    1.0763   
    46. B(H  43,C  14)                1.0816 -0.000783  0.0014    1.0830   
    47. B(H  44,C  15)                1.0839  0.000520 -0.0000    1.0838   
    48. B(H  45,C  15)                1.0847 -0.000245  0.0007    1.0854   
    49. B(H  46,C  16)                1.0872 -0.000339  0.0008    1.0880   
    50. B(H  47,C  16)                1.0859 -0.000290  0.0007    1.0865   
    51. B(H  48,C  17)                1.0880 -0.000319  0.0005    1.0884   
    52. B(H  48,H  34)                3.2523  0.000148  0.0570    3.3093   
    53. B(H  49,C  17)                1.0812 -0.000805  0.0026    1.0838   
    54. B(H  50,C  19)                1.0880 -0.000677  0.0014    1.0894   
    55. B(H  51,C  20)                1.0831 -0.000516  0.0015    1.0846   
    56. B(H  52,O  21)                0.9519  0.000868  0.0023    0.9541   
    57. B(H  52,O  31)                2.1499 -0.000514  0.0289    2.1788   
    58. B(H  53,C  22)                1.0901 -0.000340  0.0010    1.0911   
    59. B(H  54,C  23)                1.0808 -0.000146  0.0010    1.0818   
    60. B(H  55,C  23)                1.0887  0.000034  0.0006    1.0893   
    61. B(H  56,O  24)                0.9499  0.000403  0.0019    0.9517   
    62. B(H  56,O  21)                2.0957  0.000197  0.0009    2.0966   
    63. B(H  57,C  26)                1.0918 -0.000214  0.0012    1.0930   
    64. B(H  58,O  27)                0.9506  0.000846  0.0015    0.9521   
    65. B(H  58,O  29)                2.3451 -0.000454  0.0058    2.3509   
    66. B(H  59,C  28)                1.0857 -0.000324  0.0012    1.0869   
    67. B(H  60,O  29)                0.9488  0.000929  0.0015    0.9503   
    68. A(O   0,C   1,N  13)          124.56  0.001084   -0.09    124.47   
    69. A(O   0,C   1,C   2)          126.92  0.000197    0.04    126.96   
    70. A(C   2,C   1,N  13)          108.49 -0.001377    0.05    108.54   
    71. A(C   1,C   2,H   3)          107.89  0.000305    0.03    107.92   
    72. A(H   3,C   2,C   4)          112.49  0.000065   -0.12    112.36   
    73. A(H   3,C   2,C   9)          109.95  0.000277    0.14    110.10   
    74. A(C   1,C   2,C   9)          115.06  0.000370   -0.28    114.78   
    75. A(C   4,C   2,C   9)          106.86 -0.000814    0.09    106.95   
    76. A(C   1,C   2,C   4)          104.59 -0.000232    0.12    104.71   
    77. A(H  12,C   4,C  30)          107.29  0.001346   -0.21    107.08   
    78. A(C   2,C   4,H  12)          112.50 -0.000123   -0.15    112.35   
    79. A(C   5,C   4,C  30)          116.37 -0.002960    0.71    117.08   
    80. A(C   2,C   4,C   5)          106.92  0.001088   -0.12    106.80   
    81. A(C   2,C   4,C  30)          104.69  0.000540   -0.03    104.66   
    82. A(C   5,C   4,H  12)          109.12  0.000081   -0.19    108.93   
    83. A(C   6,C   5,C   8)          111.90  0.001498   -0.15    111.75   
    84. A(C   4,C   5,C   8)          101.54 -0.000084    0.03    101.57   
    85. A(C   6,C   5,H  32)          108.06  0.000354   -0.15    107.91   
    86. A(C   4,C   5,H  32)          109.56  0.000237   -0.07    109.49   
    87. A(C   4,C   5,C   6)          114.49 -0.002229    0.53    115.02   
    88. A(C   8,C   5,H  32)          111.22  0.000203   -0.19    111.03   
    89. A(C   5,C   6,C   7)          125.10  0.002721   -0.44    124.66   
    90. A(C   5,C   6,H  33)          116.68 -0.001160    0.19    116.87   
    91. A(C   7,C   6,H  33)          118.21 -0.001550    0.25    118.45   
    92. A(C   6,C   7,H  35)          122.22  0.000757   -0.11    122.11   
    93. A(C   6,C   7,H  34)          121.10 -0.001126    0.18    121.28   
    94. A(H  34,C   7,H  35)          116.67  0.000365   -0.06    116.61   
    95. A(C   9,C   8,H  36)          109.44  0.000323    0.01    109.46   
    96. A(C   5,C   8,H  36)          109.17 -0.000038   -0.05    109.13   
    97. A(H  36,C   8,H  37)          107.75 -0.000457    0.07    107.82   
    98. A(C   5,C   8,C   9)          104.88 -0.000294    0.02    104.90   
    99. A(C   5,C   8,H  37)          112.41  0.000090    0.01    112.42   
   100. A(C   9,C   8,H  37)          113.12  0.000392   -0.06    113.05   
   101. A(C   2,C   9,C  10)          112.89 -0.000200    0.01    112.91   
   102. A(C  10,C   9,H  38)          106.55 -0.000605    0.12    106.66   
   103. A(C   2,C   9,C   8)          102.59  0.000282    0.01    102.61   
   104. A(C   8,C   9,H  38)          108.52 -0.000253    0.07    108.59   
   105. A(C   2,C   9,H  38)          108.32  0.000317   -0.03    108.29   
   106. A(C   8,C   9,C  10)          117.65  0.000492   -0.18    117.47   
   107. A(C   9,C  10,H  39)          114.15 -0.000148    0.04    114.20   
   108. A(C  11,C  10,H  39)          119.19 -0.000049    0.05    119.23   
   109. A(C   9,C  10,C  11)          126.66  0.000197   -0.09    126.57   
   110. A(H  40,C  11,H  41)          116.16 -0.000130    0.05    116.21   
   111. A(C  10,C  11,H  41)          122.92  0.000207   -0.05    122.87   
   112. A(C  10,C  11,H  40)          120.91 -0.000077    0.01    120.92   
   113. A(C   1,N  13,C  30)          113.45  0.001683   -0.04    113.41   
   114. A(C   1,N  13,C  14)          122.36  0.001706    0.04    122.40   
   115. A(C  14,N  13,C  30)          123.60 -0.003426    0.02    123.62   
   116. A(N  13,C  14,C  15)          115.96  0.003534   -0.23    115.73   
   117. A(H  42,C  14,H  43)          107.89 -0.000167    0.11    108.00   
   118. A(C  15,C  14,H  43)          108.35 -0.001378    0.15    108.50   
   119. A(N  13,C  14,H  43)          107.06 -0.000394    0.19    107.25   
   120. A(C  15,C  14,H  42)          110.55 -0.000113   -0.12    110.43   
   121. A(N  13,C  14,H  42)          106.72 -0.001675   -0.09    106.63   
   122. A(H  44,C  15,H  45)          106.90  0.001302    0.12    107.02   
   123. A(C  14,C  15,C  16)          117.99  0.011428   -0.85    117.14   
   124. A(C  16,C  15,H  45)          108.72 -0.001865    0.16    108.88   
   125. A(C  14,C  15,H  45)          105.41 -0.003957    0.10    105.51   
   126. A(C  16,C  15,H  44)          108.05 -0.004900    0.31    108.36   
   127. A(C  14,C  15,H  44)          109.25 -0.002615    0.23    109.49   
   128. A(C  17,C  16,H  47)          109.07 -0.002234    0.12    109.20   
   129. A(H  46,C  16,H  47)          106.00  0.000775    0.20    106.20   
   130. A(C  15,C  16,H  47)          107.60 -0.004575    0.13    107.73   
   131. A(C  17,C  16,H  46)          107.19 -0.004347    0.05    107.24   
   132. A(C  15,C  16,H  46)          109.98 -0.002434    0.11    110.09   
   133. A(C  15,C  16,C  17)          116.52  0.011982   -0.55    115.96   
   134. A(C  16,C  17,O  18)          110.13  0.004206    0.09    110.22   
   135. A(O  18,C  17,H  49)          109.89  0.000745    0.00    109.89   
   136. A(C  16,C  17,H  49)          110.53  0.000598   -0.02    110.51   
   137. A(O  18,C  17,H  48)          110.14  0.000566   -0.16    109.98   
   138. A(C  16,C  17,H  48)          109.35 -0.003946   -0.11    109.24   
   139. A(H  48,C  17,H  49)          106.74 -0.002411    0.20    106.94   
   140. A(C  17,O  18,C  19)          115.85 -0.000856   -0.05    115.80   
   141. A(O  18,C  19,C  20)          111.69  0.001763    0.11    111.80   
   142. A(C  28,C  19,H  50)          108.37  0.000833   -0.08    108.29   
   143. A(C  20,C  19,H  50)          108.94 -0.000860    0.01    108.95   
   144. A(O  18,C  19,H  50)          109.54  0.000025    0.09    109.63   
   145. A(C  20,C  19,C  28)          108.97 -0.000643   -0.00    108.96   
   146. A(O  18,C  19,C  28)          109.27 -0.001135   -0.14    109.13   
   147. A(O  21,C  20,C  22)          111.33 -0.000172   -0.04    111.29   
   148. A(C  19,C  20,C  22)          109.32  0.000304    0.01    109.33   
   149. A(C  19,C  20,O  21)          113.63 -0.001208    0.18    113.81   
   150. A(O  21,C  20,H  51)          105.63  0.000237    0.06    105.68   
   151. A(C  19,C  20,H  51)          108.45  0.000248   -0.14    108.32   
   152. A(C  22,C  20,H  51)          108.26  0.000691   -0.09    108.18   
   153. A(C  20,O  21,H  52)          113.72 -0.002319    0.01    113.73   
   154. A(O  25,C  22,H  53)          110.19  0.000067    0.00    110.19   
   155. A(C  23,C  22,H  53)          107.96 -0.000556    0.08    108.05   
   156. A(C  20,C  22,H  53)          109.24  0.000379   -0.01    109.24   
   157. A(C  23,C  22,O  25)          106.53  0.000561   -0.03    106.50   
   158. A(C  20,C  22,O  25)          109.38 -0.000263    0.01    109.39   
   159. A(C  20,C  22,C  23)          113.48 -0.000186   -0.06    113.42   
   160. A(H  54,C  23,H  55)          107.46 -0.000476    0.13    107.59   
   161. A(C  22,C  23,H  55)          109.28  0.000458   -0.09    109.18   
   162. A(O  24,C  23,H  54)          107.42  0.000443   -0.06    107.36   
   163. A(C  22,C  23,H  54)          108.03 -0.000252    0.01    108.04   
   164. A(O  24,C  23,H  55)          111.76  0.000011    0.02    111.79   
   165. A(C  22,C  23,O  24)          112.67 -0.000217   -0.00    112.67   
   166. A(C  23,O  24,H  56)          108.79 -0.000080    0.06    108.84   
   167. A(C  22,O  25,C  26)          115.01  0.001188   -0.33    114.68   
   168. A(C  28,C  26,H  57)          109.52  0.000350   -0.07    109.46   
   169. A(O  27,C  26,H  57)          110.28 -0.000367    0.10    110.38   
   170. A(O  25,C  26,H  57)          109.76 -0.000331   -0.01    109.75   
   171. A(O  27,C  26,C  28)          111.36 -0.000413    0.09    111.46   
   172. A(O  25,C  26,C  28)          108.73 -0.000442    0.16    108.89   
   173. A(O  25,C  26,O  27)          107.14  0.001206   -0.27    106.87   
   174. A(C  26,O  27,H  58)          108.11  0.001218   -0.04    108.06   
   175. A(O  29,C  28,H  59)          110.34 -0.000376    0.06    110.40   
   176. A(C  26,C  28,H  59)          107.40 -0.000028    0.00    107.40   
   177. A(C  19,C  28,H  59)          109.17  0.000120   -0.01    109.16   
   178. A(C  26,C  28,O  29)          107.60  0.000112   -0.02    107.58   
   179. A(C  19,C  28,O  29)          111.90 -0.000145   -0.01    111.90   
   180. A(C  19,C  28,C  26)          110.32  0.000320   -0.02    110.30   
   181. A(C  28,O  29,H  60)          108.95  0.000226    0.01    108.96   
   182. A(N  13,C  30,O  31)          125.63  0.001671   -0.27    125.36   
   183. A(C   4,C  30,O  31)          125.79 -0.001182    0.23    126.02   
   184. A(C   4,C  30,N  13)          108.53 -0.000560    0.04    108.57   
   185. D(C   9,C   2,C   1,O   0)     60.01  0.000020    1.90     61.91   
   186. D(H   3,C   2,C   1,N  13)    118.64  0.002499   -2.11    116.53   
   187. D(H   3,C   2,C   1,O   0)    -63.13 -0.000831    1.88    -61.25   
   188. D(C   4,C   2,C   1,N  13)     -1.31  0.002396   -2.04     -3.36   
   189. D(C   4,C   2,C   1,O   0)    176.92 -0.000934    1.94    178.86   
   190. D(C   5,C   4,C   2,H   3)    122.87  0.000493    0.23    123.10   
   191. D(H  12,C   4,C   2,H   3)      3.09 -0.000244    0.63      3.73   
   192. D(C   5,C   4,C   2,C   1)   -120.31  0.000751    0.28   -120.03   
   193. D(H  12,C   4,C   2,C   1)    119.92  0.000014    0.68    120.60   
   194. D(H  12,C   4,C   2,C   9)   -117.66 -0.000086    0.47   -117.19   
   195. D(C   5,C   4,C   2,C   9)      2.12  0.000650    0.07      2.18   
   196. D(C   6,C   5,C   4,C  30)    -21.53  0.000471   -0.21    -21.74   
   197. D(C   8,C   5,C   4,C  30)   -142.28 -0.000156   -0.32   -142.60   
   198. D(C   8,C   5,C   4,C   2)    -25.75 -0.000445   -0.03    -25.78   
   199. D(C   6,C   5,C   4,C   2)     95.00  0.000181    0.07     95.08   
   200. D(C   6,C   5,C   4,H  12)   -143.06  0.000730   -0.29   -143.35   
   201. D(C   8,C   5,C   4,H  12)     96.18  0.000104   -0.40     95.79   
   202. D(C   7,C   6,C   5,C   8)   -127.38 -0.000954    0.70   -126.68   
   203. D(H  33,C   6,C   5,C   4)    -63.30  0.000309   -0.29    -63.59   
   204. D(C   7,C   6,C   5,C   4)    117.79 -0.000420    0.43    118.21   
   205. D(C   7,C   6,C   5,H  32)     -4.59  0.000515    0.26     -4.33   
   206. D(H  33,C   6,C   5,C   8)     51.54 -0.000225   -0.02     51.52   
   207. D(H  35,C   7,C   6,C   5)     -1.03  0.000390   -0.37     -1.40   
   208. D(H  34,C   7,C   6,H  33)      0.47  0.000252   -0.26      0.21   
   209. D(H  34,C   7,C   6,C   5)    179.37  0.000996   -0.99    178.38   
   210. D(H  35,C   7,C   6,H  33)   -179.93 -0.000354    0.37   -179.56   
   211. D(H  36,C   8,C   5,C   4)    -76.69 -0.000389   -0.00    -76.69   
   212. D(H  36,C   8,C   5,C   6)    160.76  0.001562   -0.58    160.18   
   213. D(C   9,C   8,C   5,H  32)    156.99  0.000128   -0.15    156.84   
   214. D(C   9,C   8,C   5,C   6)    -82.04  0.001764   -0.57    -82.62   
   215. D(C   9,C   8,C   5,C   4)     40.51 -0.000186   -0.00     40.51   
   216. D(H  36,C   8,C   5,H  32)     39.79 -0.000075   -0.15     39.64   
   217. D(C  10,C   9,C   8,H  37)     73.11  0.000038    0.15     73.26   
   218. D(C  10,C   9,C   8,C   5)   -164.05  0.000182    0.14   -163.92   
   219. D(C   2,C   9,C   8,H  37)   -162.35  0.000313    0.07   -162.28   
   220. D(C   2,C   9,C   8,H  36)     77.50  0.000411    0.02     77.52   
   221. D(C   2,C   9,C   8,C   5)    -39.51  0.000457    0.05    -39.46   
   222. D(C  10,C   9,C   2,C   4)    150.24  0.000145   -0.28    149.96   
   223. D(C  10,C   9,C   2,C   1)    -94.16 -0.000475   -0.22    -94.38   
   224. D(C   8,C   9,C   2,C   4)     22.61 -0.000545   -0.07     22.53   
   225. D(C   8,C   9,C   2,H   3)    -99.75 -0.000280   -0.07    -99.82   
   226. D(C  10,C   9,C   8,H  36)    -47.04  0.000136    0.10    -46.94   
   227. D(C   8,C   9,C   2,C   1)    138.22 -0.001165   -0.02    138.20   
   228. D(C  10,C   9,C   2,H   3)     27.88  0.000409   -0.27     27.61   
   229. D(H  39,C  10,C   9,C   8)    174.55  0.000298    0.04    174.59   
   230. D(H  39,C  10,C   9,C   2)     55.31 -0.000303    0.15     55.46   
   231. D(C  11,C  10,C   9,H  38)    115.63 -0.000164    0.12    115.75   
   232. D(C  11,C  10,C   9,C   8)     -6.35  0.000321    0.05     -6.30   
   233. D(C  11,C  10,C   9,C   2)   -125.59 -0.000280    0.16   -125.43   
   234. D(H  41,C  11,C  10,H  39)    179.39  0.000056   -0.00    179.39   
   235. D(H  41,C  11,C  10,C   9)      0.33  0.000033   -0.01      0.32   
   236. D(H  40,C  11,C  10,H  39)     -0.26  0.000052   -0.02     -0.29   
   237. D(H  40,C  11,C  10,C   9)   -179.32  0.000029   -0.03   -179.35   
   238. D(C  30,N  13,C   1,C   2)     -2.02 -0.002096    2.40      0.38   
   239. D(C  30,N  13,C   1,O   0)    179.70  0.001154   -1.40    178.30   
   240. D(C  14,N  13,C   1,C   2)   -173.49 -0.001526    2.23   -171.26   
   241. D(C  14,N  13,C   1,O   0)      8.23  0.001724   -1.57      6.66   
   242. D(H  43,C  14,N  13,C   1)     50.93  0.002124   -2.73     48.20   
   243. D(H  42,C  14,N  13,C  30)     -4.35  0.001070   -2.74     -7.09   
   244. D(H  42,C  14,N  13,C   1)    166.25  0.000938   -2.55    163.70   
   245. D(C  15,C  14,N  13,C  30)    119.29  0.002027   -3.10    116.19   
   246. D(C  15,C  14,N  13,C   1)    -70.11  0.001895   -2.91    -73.03   
   247. D(C  16,C  15,C  14,N  13)    -51.73  0.001880   -1.52    -53.25   
   248. D(H  44,C  15,C  14,H  43)    -48.20  0.000937   -1.77    -49.97   
   249. D(H  44,C  15,C  14,H  42)   -166.24  0.002033   -1.93   -168.16   
   250. D(H  44,C  15,C  14,N  13)     72.14  0.001747   -1.56     70.58   
   251. D(C  16,C  15,C  14,H  43)   -172.07  0.001070   -1.73   -173.80   
   252. D(C  16,C  15,C  14,H  42)     69.90  0.002167   -1.89     68.01   
   253. D(H  46,C  16,C  15,H  45)   -165.85  0.002443    0.02   -165.83   
   254. D(H  46,C  16,C  15,H  44)    -50.18  0.000390    0.43    -49.75   
   255. D(H  46,C  16,C  15,C  14)     74.29  0.001255    0.36     74.65   
   256. D(C  17,C  16,C  15,H  45)     71.95  0.001359    0.26     72.21   
   257. D(C  17,C  16,C  15,H  44)   -172.38 -0.000694    0.67   -171.71   
   258. D(C  17,C  16,C  15,C  14)    -47.91  0.000171    0.60    -47.31   
   259. D(H  48,C  17,C  16,H  47)    -53.02  0.001825   -0.19    -53.21   
   260. D(H  48,C  17,C  16,H  46)     61.32 -0.000636    0.13     61.45   
   261. D(H  48,C  17,C  16,C  15)   -175.04  0.001081   -0.05   -175.08   
   262. D(O  18,C  17,C  16,H  47)     68.13  0.002656   -0.40     67.73   
   263. D(O  18,C  17,C  16,H  46)   -177.52  0.000195   -0.08   -177.61   
   264. D(O  18,C  17,C  16,C  15)    -53.88  0.001912   -0.26    -54.14   
   265. D(C  19,O  18,C  17,H  49)     49.37  0.001029   -0.25     49.12   
   266. D(C  19,O  18,C  17,H  48)    -67.94  0.003188   -0.40    -68.34   
   267. D(C  19,O  18,C  17,C  16)    171.38  0.005026   -0.22    171.16   
   268. D(H  50,C  19,O  18,C  17)      0.66  0.002410   -0.73     -0.07   
   269. D(C  28,C  19,O  18,C  17)    119.24  0.002763   -0.86    118.38   
   270. D(C  20,C  19,O  18,C  17)   -120.13  0.002329   -0.88   -121.01   
   271. D(C  22,C  20,C  19,H  50)     64.60  0.000526   -0.24     64.36   
   272. D(C  22,C  20,C  19,C  28)    -53.45  0.000385   -0.15    -53.60   
   273. D(C  22,C  20,C  19,O  18)   -174.26  0.001111   -0.05   -174.31   
   274. D(O  21,C  20,C  19,H  50)    -60.43  0.001403   -0.33    -60.76   
   275. D(O  21,C  20,C  19,C  28)   -178.49  0.001262   -0.23   -178.72   
   276. D(O  21,C  20,C  19,O  18)     60.70  0.001987   -0.13     60.57   
   277. D(H  52,O  21,C  20,H  51)    153.67 -0.000132    0.70    154.37   
   278. D(H  52,O  21,C  20,C  22)    -89.03  0.000740    0.61    -88.43   
   279. D(H  52,O  21,C  20,C  19)     34.92  0.000085    0.72     35.64   
   280. D(O  25,C  22,C  20,H  51)    -62.31 -0.000860    0.52    -61.80   
   281. D(O  25,C  22,C  20,O  21)   -178.00 -0.001459    0.52   -177.48   
   282. D(O  25,C  22,C  20,C  19)     55.65  0.000003    0.31     55.95   
   283. D(C  23,C  22,C  20,H  51)     56.48 -0.000450    0.45     56.93   
   284. D(C  23,C  22,C  20,O  21)    -59.21 -0.001049    0.46    -58.75   
   285. D(C  23,C  22,C  20,C  19)    174.44  0.000413    0.25    174.68   
   286. D(H  54,C  23,C  22,H  53)     67.17 -0.000094    0.65     67.82   
   287. D(H  54,C  23,C  22,O  25)    -51.16 -0.000184    0.61    -50.55   
   288. D(H  54,C  23,C  22,C  20)   -171.59 -0.000127    0.65   -170.93   
   289. D(O  24,C  23,C  22,H  53)    -51.32 -0.000348    0.71    -50.61   
   290. D(O  24,C  23,C  22,O  25)   -169.66 -0.000438    0.68   -168.98   
   291. D(O  24,C  23,C  22,C  20)     69.92 -0.000381    0.72     70.64   
   292. D(H  56,O  24,C  23,H  55)     70.44  0.000326   -0.28     70.17   
   293. D(H  56,O  24,C  23,H  54)   -171.91  0.000026   -0.15   -172.06   
   294. D(H  56,O  24,C  23,C  22)    -53.06 -0.000125   -0.17    -53.23   
   295. D(C  26,O  25,C  22,H  53)     57.49 -0.000185   -0.06     57.44   
   296. D(C  26,O  25,C  22,C  23)    174.36 -0.000494    0.03    174.38   
   297. D(C  26,O  25,C  22,C  20)    -62.62 -0.000528   -0.05    -62.67   
   298. D(H  57,C  26,O  25,C  22)    -56.63  0.000181   -0.05    -56.68   
   299. D(C  28,C  26,O  25,C  22)     63.15  0.000141   -0.05     63.11   
   300. D(O  27,C  26,O  25,C  22)   -176.37  0.000095   -0.01   -176.38   
   301. D(H  58,O  27,C  26,H  57)     75.78  0.000002   -0.18     75.60   
   302. D(H  58,O  27,C  26,C  28)    -46.03  0.000091   -0.23    -46.26   
   303. D(H  58,O  27,C  26,O  25)   -164.81  0.000119   -0.30   -165.11   
   304. D(C  19,C  28,C  26,O  25)    -57.80  0.000732   -0.01    -57.81   
   305. D(O  29,C  28,C  19,H  50)     56.21  0.000546   -0.06     56.15   
   306. D(O  29,C  28,C  19,C  20)    174.62 -0.000372   -0.10    174.53   
   307. D(O  29,C  28,C  19,O  18)    -63.10  0.000681   -0.04    -63.14   
   308. D(C  26,C  28,C  19,H  50)    -63.56  0.000284   -0.01    -63.57   
   309. D(C  26,C  28,C  19,C  20)     54.86 -0.000634   -0.05     54.81   
   310. D(C  19,C  28,C  26,O  27)   -175.62 -0.000227    0.17   -175.46   
   311. D(C  26,C  28,C  19,O  18)    177.14  0.000419    0.00    177.14   
   312. D(O  29,C  28,C  26,H  57)    -60.20  0.000182    0.06    -60.14   
   313. D(O  29,C  28,C  26,O  27)     62.04 -0.000316    0.20     62.25   
   314. D(O  29,C  28,C  26,O  25)    179.87  0.000643    0.03    179.89   
   315. D(C  19,C  28,C  26,H  57)     62.13  0.000271    0.03     62.16   
   316. D(H  60,O  29,C  28,H  59)    -50.74  0.000221   -0.34    -51.08   
   317. D(H  60,O  29,C  28,C  26)   -167.62  0.000394   -0.37   -167.99   
   318. D(H  60,O  29,C  28,C  19)     71.03  0.000011   -0.32     70.71   
   319. D(O  31,C  30,N  13,C   1)   -173.07  0.002705   -3.35   -176.42   
   320. D(C   4,C  30,N  13,C  14)    175.91  0.000775   -1.54    174.37   
   321. D(C   4,C  30,N  13,C   1)      4.56  0.000842   -1.71      2.85   
   322. D(O  31,C  30,C   4,C   5)    -69.66 -0.000922    2.21    -67.45   
   323. D(O  31,C  30,C   4,C   2)    172.58 -0.001007    1.99    174.57   
   324. D(N  13,C  30,C   4,H  12)   -124.79 -0.000005    0.61   -124.18   
   325. D(N  13,C  30,C   4,C   5)    112.72  0.000859    0.53    113.25   
   326. D(O  31,C  30,N  13,C  14)     -1.72  0.002637   -3.18     -4.90   
   327. D(N  13,C  30,C   4,C   2)     -5.05  0.000774    0.32     -4.73   
    ----------------------------------------------------------------------------

Geometry step timings:
Preparation and reading OPT file:      0.002 s ( 6.506 %)
Internal coordinates            :      0.000 s ( 0.152 %)
B/P matrices and projection     :      0.011 s (39.506 %)
Hessian update/contruction      :      0.004 s (12.831 %)
Making the step                 :      0.007 s (25.418 %)
Converting the step to Cartesian:      0.001 s ( 3.529 %)
Storing new data                :      0.000 s ( 0.925 %)
Checking convergence            :      0.000 s ( 0.186 %)
Final printing                  :      0.003 s (10.939 %)
Total time                      :      0.029 s

Time for energy+gradient        :    644.781 s
Time for complete geometry iter :    644.883 s

         *************************************************************
         *                GEOMETRY OPTIMIZATION CYCLE   5            *
         *************************************************************
---------------------------------
CARTESIAN COORDINATES (ANGSTROEM)
---------------------------------
  O     -2.766222    2.697537    1.788796
  C     -2.541244    1.543889    1.596847
  C     -3.538717    0.404524    1.619030
  H     -3.969117    0.354670    2.612739
  C     -2.711109   -0.842835    1.277915
  C     -3.317983   -1.443701   -0.026650
  C     -2.635177   -1.008872   -1.299760
  C     -2.023907   -1.818509   -2.142624
  C     -4.773893   -0.936870    0.045423
  C     -4.662128    0.506337    0.555054
  C     -5.913090    1.155569    1.084146
  C     -7.132307    0.653754    1.052750
  H     -2.749509   -1.589358    2.061454
  N     -1.283043    1.019316    1.356782
  C     -0.062822    1.821291    1.451554
  C      0.150463    2.819740    0.314819
  C      0.086019    2.264325   -1.110915
  C      0.879635    0.993979   -1.368333
  O      2.220293    1.172769   -0.983045
  C      3.017381    0.018490   -0.987617
  C      3.609194   -0.268100    0.390924
  O      2.645797   -0.482010    1.387186
  C      4.581661   -1.455028    0.290756
  C      5.325831   -1.741067    1.591131
  O      4.497303   -2.273434    2.579278
  O      5.561260   -1.174936   -0.675856
  C      5.074661   -1.008422   -1.960281
  O      6.165343   -0.825865   -2.780088
  C      4.152027    0.200506   -1.984350
  O      3.677303    0.345223   -3.297000
  C     -1.281180   -0.347238    1.202505
  O     -0.307760   -1.026151    1.047068
  H     -3.279448   -2.524906    0.021174
  H     -2.680300    0.043212   -1.540854
  H     -1.575892   -1.446120   -3.047333
  H     -1.948168   -2.878581   -1.966609
  H     -5.323912   -1.535639    0.766786
  H     -5.286424   -1.012359   -0.906895
  H     -4.305273    1.134589   -0.258923
  H     -5.756774    2.133810    1.511579
  H     -7.967060    1.204046    1.450506
  H     -7.356289   -0.311475    0.631714
  H      0.759387    1.128836    1.504847
  H     -0.102891    2.365168    2.387204
  H     -0.566900    3.627720    0.400140
  H      1.133623    3.247980    0.482475
  H     -0.946919    2.059676   -1.384558
  H      0.429546    3.043418   -1.785856
  H      0.826586    0.745388   -2.427034
  H      0.448357    0.160282   -0.826525
  H      2.420616   -0.837204   -1.301456
  H      4.170913    0.603646    0.708569
  H      1.868955   -0.940929    1.077318
  H      4.026038   -2.352626    0.014853
  H      6.093043   -2.474942    1.383543
  H      5.822443   -0.831477    1.926822
  H      3.745289   -1.701057    2.691235
  H      4.516499   -1.898383   -2.261970
  H      5.855088   -0.482200   -3.612070
  H      4.743145    1.066323   -1.697643
  H      3.253259    1.191598   -3.380368

----------------------------
CARTESIAN COORDINATES (A.U.)
----------------------------
  NO LB      ZA    FRAG     MASS         X           Y           Z
   0 O     8.0000    0    15.999   -5.227402    5.097606    3.380334
   1 C     6.0000    0    12.011   -4.802256    2.917527    3.017604
   2 C     6.0000    0    12.011   -6.687206    0.764440    3.059524
   3 H     1.0000    0     1.008   -7.500543    0.670230    4.937360
   4 C     6.0000    0    12.011   -5.123253   -1.592727    2.414909
   5 C     6.0000    0    12.011   -6.270080   -2.728200   -0.050362
   6 C     6.0000    0    12.011   -4.979762   -1.906492   -2.456190
   7 C     6.0000    0    12.011   -3.824629   -3.436484   -4.048972
   8 C     6.0000    0    12.011   -9.021350   -1.770428    0.085837
   9 C     6.0000    0    12.011   -8.810145    0.956838    1.048900
  10 C     6.0000    0    12.011  -11.174121    2.183710    2.048739
  11 C     6.0000    0    12.011  -13.478107    1.235417    1.989409
  12 H     1.0000    0     1.008   -5.195819   -3.003451    3.895583
  13 N     7.0000    0    14.007   -2.424601    1.926228    2.563947
  14 C     6.0000    0    12.011   -0.118716    3.441741    2.743040
  15 C     6.0000    0    12.011    0.284334    5.328535    0.594923
  16 C     6.0000    0    12.011    0.162552    4.278955   -2.099326
  17 C     6.0000    0    12.011    1.662269    1.878349   -2.585775
  18 O     8.0000    0    15.999    4.195746    2.216212   -1.857686
  19 C     6.0000    0    12.011    5.702024    0.034941   -1.866326
  20 C     6.0000    0    12.011    6.820387   -0.506635    0.738739
  21 O     8.0000    0    15.999    4.999832   -0.910866    2.621401
  22 C     6.0000    0    12.011    8.658084   -2.749604    0.549448
  23 C     6.0000    0    12.011   10.064362   -3.290141    3.006802
  24 O     8.0000    0    15.999    8.498671   -4.296167    4.874128
  25 O     8.0000    0    15.999   10.509258   -2.220307   -1.277183
  26 C     6.0000    0    12.011    9.589719   -1.905642   -3.704395
  27 O     8.0000    0    15.999   11.650810   -1.560658   -5.253605
  28 C     6.0000    0    12.011    7.846195    0.378902   -3.749878
  29 O     8.0000    0    15.999    6.949095    0.652376   -6.230426
  30 C     6.0000    0    12.011   -2.421080   -0.656184    2.272406
  31 O     8.0000    0    15.999   -0.581582   -1.939144    1.978672
  32 H     1.0000    0     1.008   -6.197258   -4.771380    0.040013
  33 H     1.0000    0     1.008   -5.065033    0.081659   -2.911793
  34 H     1.0000    0     1.008   -2.978004   -2.732770   -5.758625
  35 H     1.0000    0     1.008   -3.681504   -5.439730   -3.716352
  36 H     1.0000    0     1.008  -10.060735   -2.901938    1.449015
  37 H     1.0000    0     1.008   -9.989893   -1.913081   -1.713782
  38 H     1.0000    0     1.008   -8.135786    2.144062   -0.489293
  39 H     1.0000    0     1.008  -10.878727    4.032317    2.856471
  40 H     1.0000    0     1.008  -15.055561    2.275316    2.741060
  41 H     1.0000    0     1.008  -13.901372   -0.588602    1.193767
  42 H     1.0000    0     1.008    1.435034    2.133191    2.843749
  43 H     1.0000    0     1.008   -0.194435    4.469520    4.511163
  44 H     1.0000    0     1.008   -1.071285    6.855398    0.756156
  45 H     1.0000    0     1.008    2.142237    6.137793    0.911746
  46 H     1.0000    0     1.008   -1.789418    3.892224   -2.616435
  47 H     1.0000    0     1.008    0.811725    5.751226   -3.374779
  48 H     1.0000    0     1.008    1.562022    1.408578   -4.586430
  49 H     1.0000    0     1.008    0.847271    0.302888   -1.561907
  50 H     1.0000    0     1.008    4.574301   -1.582087   -2.459396
  51 H     1.0000    0     1.008    7.881883    1.140726    1.339002
  52 H     1.0000    0     1.008    3.531813   -1.778098    2.035836
  53 H     1.0000    0     1.008    7.608109   -4.445819    0.028067
  54 H     1.0000    0     1.008   11.514183   -4.676963    2.614517
  55 H     1.0000    0     1.008   11.002822   -1.571264    3.641167
  56 H     1.0000    0     1.008    7.077571   -3.214532    5.085697
  57 H     1.0000    0     1.008    8.534947   -3.587423   -4.274505
  58 H     1.0000    0     1.008   11.064514   -0.911227   -6.825822
  59 H     1.0000    0     1.008    8.963244    2.015058   -3.208079
  60 H     1.0000    0     1.008    6.147768    2.251793   -6.387969

--------------------------------
INTERNAL COORDINATES (ANGSTROEM)
--------------------------------
 O      0   0   0     0.000000000000     0.00000000     0.00000000
 C      1   0   0     1.190950603232     0.00000000     0.00000000
 C      2   1   0     1.514462500017   127.01173421     0.00000000
 H      3   2   1     1.084059387333   108.03020346   298.68989093
 C      3   2   1     1.535317574114   104.65107571   178.78946910
 C      5   3   2     1.559239171869   106.80819387   240.15770578
 C      6   5   3     1.508677960369   114.75941789    95.02795765
 C      7   6   5     1.318932356689   124.89657276   118.13839986
 C      6   5   3     1.543290294691   101.62739507   334.17587700
 C      9   6   5     1.534620845075   104.81211644    40.49330523
 C     10   9   6     1.505439566206   117.50101557   196.09734874
 C     11  10   9     1.318822462606   126.56546189   353.73319287
 H      5   3   2     1.082914971229   112.34595075   120.66756034
 N      2   1   3     1.384152078576   124.52631337   182.35194683
 C     14   2   1     1.463245214422   122.62137047     6.55539741
 C     15  14   2     1.527925120878   115.23762788   286.90864594
 C     16  15  14     1.531455982893   116.72743075   306.97456574
 C     17  16  15     1.519825718739   116.03025720   312.73962834
 O     18  17  16     1.406334663570   110.18938548   305.75031867
 C     19  18  17     1.402758324768   115.86088708   171.15371337
 C     20  19  18     1.527334524903   111.81669704   238.96508886
 O     21  20  19     1.402293889742   113.80704279    60.58256535
 C     21  20  19     1.537701075824   109.33497492   185.70316920
 C     23  21  20     1.525314234007   113.43811860   174.67993795
 O     24  23  21     1.395100818402   112.68478086    70.64352537
 O     23  21  20     1.404422966988   109.39080762    55.95616163
 C     26  23  21     1.383565529735   114.68524943   297.33046124
 O     27  26  23     1.376589391491   106.86799415   183.61684128
 C     27  26  23     1.520966896968   108.88652520    63.10492872
 O     29  27  26     1.403337161607   107.57621963   179.89068052
 C     14   2   1     1.375235782488   113.40828823   178.30062242
 O     31  14   2     1.196925541827   125.40157364   183.53007422
 H      6   5   3     1.082947784410   109.50810271   216.64914632
 H      7   6   5     1.080298167598   116.75100535   296.42200417
 H      8   7   6     1.076052921688   121.18580053   178.50716698
 H      8   7   6     1.077251250924   122.15670511   358.65106125
 H      9   6   5     1.086927167452   109.11461223   283.24431578
 H      9   6   5     1.084110297805   112.46425148   163.70260171
 H     10   9   6     1.088395518612   108.56395011    75.07388461
 H     11  10   9     1.078929833021   114.19568924   174.62718005
 H     12  11  10     1.076031128457   120.91641119   180.64889875
 H     12  11  10     1.076618112441   122.87271395     0.32089214
 H     15  14   2     1.076272441347   106.71696703   163.79491830
 H     15  14   2     1.082981805885   107.47868199    48.17613503
 H     16  15  14     1.083845811403   109.64472052    70.69723176
 H     16  15  14     1.085404275819   105.62540107   185.73054189
 H     17  16  15     1.087989758810   110.01819755    74.64041074
 H     17  16  15     1.086526870511   107.75524003   189.99630114
 H     18  17  16     1.088787960387   109.27437267   184.78847958
 H     18  17  16     1.083793446989   110.51822031    67.39322560
 H     20  19  18     1.089420288074   109.63324348   359.91952590
 H     21  20  19     1.084605133397   108.31241425   303.37161606
 H     22  21  20     0.953996378878   113.70682540    35.64882752
 H     23  21  20     1.091110652725   109.23336683   295.26473353
 H     24  23  21     1.081794870835   108.03685535   189.07156308
 H     24  23  21     1.089342381953   109.18058774   305.80530365
 H     25  24  23     0.951669184997   108.85090832   306.76635752
 H     27  26  23     1.092973073510   109.74638118   303.31623489
 H     28  27  26     0.952132705674   108.06371110   194.88872002
 H     29  27  26     1.086857431875   107.40321042    61.04319593
 H     30  29  27     0.950323252480   108.95622087   192.01314192

---------------------------
INTERNAL COORDINATES (A.U.)
---------------------------
 O      0   0   0     0.000000000000     0.00000000     0.00000000
 C      1   0   0     2.250570479136     0.00000000     0.00000000
 C      2   1   0     2.861919365127   127.01173421     0.00000000
 H      3   2   1     2.048575354966   108.03020346   298.68989093
 C      3   2   1     2.901329743671   104.65107571   178.78946910
 C      5   3   2     2.946535012115   106.80819387   240.15770578
 C      6   5   3     2.850988169381   114.75941789    95.02795765
 C      7   6   5     2.492420943309   124.89657276   118.13839986
 C      6   5   3     2.916396002105   101.62739507   334.17587700
 C      9   6   5     2.900013116598   104.81211644    40.49330523
 C     10   9   6     2.844868491298   117.50101557   196.09734874
 C     11  10   9     2.492213273588   126.56546189   353.73319287
 H      5   3   2     2.046412721946   112.34595075   120.66756034
 N      2   1   3     2.615668356207   124.52631337   182.35194683
 C     14   2   1     2.765132722028   122.62137047     6.55539741
 C     15  14   2     2.887360031599   115.23762788   286.90864594
 C     16  15  14     2.894032393823   116.72743075   306.97456574
 C     17  16  15     2.872054379706   116.03025720   312.73962834
 O     18  17  16     2.657587366788   110.18938548   305.75031867
 C     19  18  17     2.650829065889   115.86088708   171.15371337
 C     20  19  18     2.886243966950   111.81669704   238.96508886
 O     21  20  19     2.649951410884   113.80704279    60.58256535
 C     21  20  19     2.905833909144   109.33497492   185.70316920
 C     23  21  20     2.882426170445   113.43811860   174.67993795
 O     24  23  21     2.636358475989   112.68478086    70.64352537
 O     23  21  20     2.653974783796   109.39080762    55.95616163
 C     26  23  21     2.614559939533   114.68524943   297.33046124
 O     27  26  23     2.601376948780   106.86799415   183.61684128
 C     27  26  23     2.874210894030   108.88652520    63.10492872
 O     29  27  26     2.651922908992   107.57621963   179.89068052
 C     14   2   1     2.598818998472   113.40828823   178.30062242
 O     31  14   2     2.261861476749   125.40157364   183.53007422
 H      6   5   3     2.046474729871   109.50810271   216.64914632
 H      7   6   5     2.041467679737   116.75100535   296.42200417
 H      8   7   6     2.033445327596   121.18580053   178.50716698
 H      8   7   6     2.035709841670   122.15670511   358.65106125
 H      9   6   5     2.053994674002   109.11461223   283.24431578
 H      9   6   5     2.048671561816   112.46425148   163.70260171
 H     10   9   6     2.056769455564   108.56395011    75.07388461
 H     11  10   9     2.038881902127   114.19568924   174.62718005
 H     12  11  10     2.033404144357   120.91641119   180.64889875
 H     12  11  10     2.034513383333   122.87271395     0.32089214
 H     15  14   2     2.033860159632   106.71696703   163.79491830
 H     15  14   2     2.046539021143   107.47868199    48.17613503
 H     16  15  14     2.048171754949   109.64472052    70.69723176
 H     16  15  14     2.051116825885   105.62540107   185.73054189
 H     17  16  15     2.056002680662   110.01819755    74.64041074
 H     17  16  15     2.053238222413   107.75524003   189.99630114
 H     18  17  16     2.057511063042   109.27437267   184.78847958
 H     18  17  16     2.048072800549   110.51822031    67.39322560
 H     20  19  18     2.058705989197   109.63324348   359.91952590
 H     21  20  19     2.049606665566   108.31241425   303.37161606
 H     22  21  20     1.802791888832   113.70682540    35.64882752
 H     23  21  20     2.061900315454   109.23336683   295.26473353
 H     24  23  21     2.044296038958   108.03685535   189.07156308
 H     24  23  21     2.058558767965   109.18058774   305.80530365
 H     25  24  23     1.798394129737   108.85090832   306.76635752
 H     27  26  23     2.065419780684   109.74638118   303.31623489
 H     28  27  26     1.799270056873   108.06371110   194.88872002
 H     29  27  26     2.053862892861   107.40321042    61.04319593
 H     30  29  27     1.795850685885   108.95622087   192.01314192

------------------------------------------------------------------------------
                   ___                                                        
                  /   \      - P O W E R E D   B Y -                         
                 /     \                                                     
                 |  |  |   _    _      __       _____    __    __             
                 |  |  |  | |  | |    /  \     |  _  \  |  |  /  |          
                  \  \/   | |  | |   /    \    | | | |  |  | /  /          
                 / \  \   | |__| |  /  /\  \   | |_| |  |  |/  /          
                |  |  |   |  __  | /  /__\  \  |    /   |      \           
                |  |  |   | |  | | |   __   |  |    \   |  |\   \          
                \     /   | |  | | |  |  |  |  | |\  \  |  | \   \       
                 \___/    |_|  |_| |__|  |__|  |_| \__\ |__|  \__/        
                                                                              
                      - O R C A' S   B I G   F R I E N D -                    
                                      &                                       
                       - I N T E G R A L  F E E D E R -                       
                                                                              
 v1 FN, 2020, v2 2021, v3 2022-2024                                           
------------------------------------------------------------------------------


----------------------
SHARK INTEGRAL PACKAGE
----------------------

Number of atoms                             ...     61
Number of basis functions                   ...    482
Number of shells                            ...    242
Maximum angular momentum                    ...      2
Integral batch strategy                     ... SHARK/LIBINT Hybrid
RI-J (if used) integral strategy            ... SPLIT-RIJ (Revised 2003 algorithm where possible)
Printlevel                                  ...      1
Contraction scheme used                     ... SEGMENTED contraction
Prescreening option                         ... SCHWARTZ
   Thresh                                   ... 2.500e-11
   Tcut                                     ... 2.500e-12
   Tpresel                                  ... 2.500e-12 
Coulomb Range Separation                    ... NOT USED
Exchange Range Separation                   ... NOT USED
Multipole approximations                    ... NOT USED
Finite Nucleus Model                        ... NOT USED
CABS basis                                  ... NOT available
Auxiliary Coulomb fitting basis             ... NOT available
Auxiliary J/K fitting basis                 ... NOT available
Auxiliary Correlation fitting basis         ... NOT available
Auxiliary 'external' fitting basis          ... NOT available

Checking pre-screening integrals            ... done (  0.0 sec) Dimension = 242
Check shell pair data                       ... done (  0.0 sec)
Shell pair information
Shell pair cut-off parameter TPreSel        ...   2.5e-12
Total number of shell pairs                 ...     29403
Shell pairs after pre-screening             ...     18412
Total number of primitive shell pairs       ...    165748
Primitive shell pairs kept                  ...     54728
          la=0 lb=0:   7006 shell pairs
          la=1 lb=0:   6170 shell pairs
          la=1 lb=1:   1369 shell pairs
          la=2 lb=0:   2487 shell pairs
          la=2 lb=1:   1146 shell pairs
          la=2 lb=2:    234 shell pairs

Calculating one electron integrals          ... done (  0.2 sec)
Calculating Nuclear repulsion               ... done (  0.0 sec) ENN=   3232.089345187298 Eh

Diagonalization of the overlap matrix:
Smallest eigenvalue                        ... 1.164e-03
Time for diagonalization                   ...    0.022 sec
Threshold for overlap eigenvalues          ... 1.000e-07
Number of eigenvalues below threshold      ... 0
Time for construction of square roots      ...    0.011 sec
Total time needed                          ...    0.034 sec

-------------------
DFT GRID GENERATION
-------------------

General Integration Accuracy     IntAcc      ... 4.388
Radial Grid Type                 RadialGrid  ... OptM3 with GC (2021)
Angular Grid (max. ang.)         AngularGrid ... 4 (Lebedev-302)
Angular grid pruning method      GridPruning ... 4 (adaptive)
Weight generation scheme         WeightScheme... mBecke (2022)
Basis function cutoff            BFCut       ... 1.0000e-11
Integration weight cutoff        WCut        ... 1.0000e-14
Partially contracted basis set               ... off
Rotationally invariant grid construction     ... off
Angular grids for H and He will be reduced by one unit

Total number of grid points                  ...   276032
Total number of batches                      ...     4341
Average number of points per batch           ...       63
Average number of grid points per atom       ...     4525
Initializing property integral containers    ... done (  0.0 sec)

SHARK setup successfully completed in   4.6 seconds

Maximum memory used throughout the entire STARTUP-calculation: 121.9 MB
Occupation numbers will be reassigned to an Aufbau configuration
             **** ENERGY FILE WAS UPDATED (monomer_hf_opt.en.tmp) ****
Finished Guess after   0.2 sec
Maximum memory used throughout the entire GUESS-calculation: 46.4 MB
----------------------------------------D-I-I-S--------------------------------------------
Iteration    Energy (Eh)           Delta-E    RMSDP     MaxDP     DIISErr   Damp  Time(sec)
-------------------------------------------------------------------------------------------
               ***  Starting incremental Fock matrix formation  ***
    1    -1466.5467206942325902     0.00e+00  1.68e-04  9.47e-03  5.36e-02  0.700  51.3
    2    -1466.5550604393206413    -8.34e-03  1.53e-04  8.49e-03  4.43e-02  0.700  40.9
                               ***Turning on AO-DIIS***
    3    -1466.5621139704512643    -7.05e-03  1.56e-04  8.48e-03  3.58e-02  0.700  40.4
    4    -1466.5677824228973805    -5.67e-03  4.36e-04  2.25e-02  2.70e-02  0.000  40.3
                              *** Initializing SOSCF ***
---------------------------------------S-O-S-C-F--------------------------------------
Iteration    Energy (Eh)           Delta-E    RMSDP     MaxDP     MaxGrad    Time(sec)
--------------------------------------------------------------------------------------
    5    -1466.5854347652316392    -1.77e-02  5.74e-05  2.32e-03  3.10e-03    42.9
               *** Restarting incremental Fock matrix formation ***
    6    -1466.5855992614610841    -1.64e-04  2.97e-05  1.24e-03  7.71e-04    51.4
    7    -1466.5856416798183091    -4.24e-05  2.61e-05  1.05e-03  3.77e-04    34.9
    8    -1466.5856558956115805    -1.42e-05  4.15e-06  2.78e-04  4.10e-05    34.2
    9    -1466.5856560730294404    -1.77e-07  1.70e-06  9.79e-05  3.23e-05    29.2
   10    -1466.5856561808627703    -1.08e-07  7.05e-07  3.78e-05  8.11e-06    26.6
   11    -1466.5856561907580726    -9.90e-09  3.11e-07  2.45e-05  4.61e-06    23.9
                 **** Energy Check signals convergence ****

               *****************************************************
               *                     SUCCESS                       *
               *           SCF CONVERGED AFTER  11 CYCLES          *
               *****************************************************

             **** ENERGY FILE WAS UPDATED (monomer_hf_opt.en.tmp) ****

----------------
TOTAL SCF ENERGY
----------------

Total Energy       :      -1466.58565619075807 Eh          -39907.82458 eV

Components:
Nuclear Repulsion  :       3232.08934518729757 Eh           87949.62235 eV
Electronic Energy  :      -4698.67500137805564 Eh         -127857.44693 eV
One Electron Energy:      -8438.91315006434706 Eh         -229634.50121 eV
Two Electron Energy:       3740.23814868629142 Eh          101777.05427 eV

Virial components:
Potential Energy   :      -2933.22794530632245 Eh          -79817.19022 eV
Kinetic Energy     :       1466.64228911556438 Eh           39909.36564 eV
Virial Ratio       :          1.99996138600037

---------------
SCF CONVERGENCE
---------------

  Last Energy change         ...    9.8953e-09  Tolerance :   1.0000e-08
  Last MAX-Density change    ...    2.4485e-05  Tolerance :   1.0000e-07
  Last RMS-Density change    ...    3.1067e-07  Tolerance :   5.0000e-09
  Last DIIS Error            ...    3.0984e-03  Tolerance :   5.0000e-07
  Last Orbital Gradient      ...    4.6067e-06  Tolerance :   1.0000e-05
  Last Orbital Rotation      ...    1.3278e-05  Tolerance :   1.0000e-05


Total SCF time: 0 days 0 hours 6 min 56 sec 
Finished LeanSCF after 416.3 sec

Maximum memory used throughout the entire LEANSCF-calculation: 48.6 MB

-------------------------   --------------------
FINAL SINGLE POINT ENERGY     -1466.585656190758
-------------------------   --------------------

------------------------------------------------------------------------------
                         ORCA SCF GRADIENT CALCULATION
------------------------------------------------------------------------------

Nuc. rep. gradient        (SHARK) ... done (  0.0 sec)
HCore & Overlap gradient  (SHARK) ... done (  3.0 sec)
Two-electron gradient     (SHARK) ... done (179.6 sec)

------------------
CARTESIAN GRADIENT
------------------

   1   O   :   -0.000478216    0.001201864    0.002123252
   2   C   :   -0.000492431    0.001739774   -0.005602698
   3   C   :    0.000799148   -0.001094209    0.001972172
   4   H   :   -0.000849449   -0.000595285    0.000009613
   5   C   :   -0.000322400   -0.000004631   -0.000390235
   6   C   :   -0.000460980    0.001328821    0.000419268
   7   C   :    0.000744555   -0.001266723    0.001047789
   8   C   :    0.000398422    0.000069513    0.000097629
   9   C   :   -0.000127765   -0.000013787    0.000065936
  10   C   :    0.000371585    0.000428786    0.000246342
  11   C   :    0.000272269   -0.000596404   -0.000151242
  12   C   :    0.000868610    0.000307656   -0.000088349
  13   H   :    0.000001497   -0.000049619   -0.000024805
  14   N   :   -0.000541629    0.000190093    0.000295657
  15   C   :   -0.000407530   -0.001379983   -0.000079436
  16   C   :   -0.001336566   -0.000385189    0.000256770
  17   C   :   -0.000221266   -0.000643709    0.000520773
  18   C   :    0.002014497    0.002828721    0.000084601
  19   O   :   -0.000320790   -0.000706212   -0.000394659
  20   C   :    0.000238079    0.000239611    0.000034197
  21   C   :   -0.000241484    0.000203439    0.001023884
  22   O   :    0.002817376    0.000532859   -0.001126329
  23   C   :    0.001016987    0.000311748   -0.000550484
  24   C   :   -0.000374393   -0.000422654    0.000096724
  25   O   :    0.001796290   -0.000645891   -0.000170351
  26   O   :   -0.001624364    0.000307554    0.000011684
  27   C   :    0.002213032   -0.000121521    0.001185567
  28   O   :   -0.000224231   -0.000959118    0.001853807
  29   C   :   -0.000129445   -0.000392147    0.000039901
  30   O   :    0.000644972   -0.002007155    0.000228541
  31   C   :    0.001704940    0.000997766   -0.000202406
  32   O   :    0.000910676   -0.000424353   -0.001772650
  33   H   :   -0.000034466   -0.000187513    0.000155375
  34   H   :   -0.000139272    0.000845750   -0.000239170
  35   H   :    0.000146707    0.000745769   -0.000344486
  36   H   :   -0.000052389   -0.000810498   -0.000094217
  37   H   :   -0.000179354   -0.000126702    0.000209157
  38   H   :   -0.000188339    0.000000898   -0.000212773
  39   H   :   -0.000207898    0.000088517   -0.000132372
  40   H   :    0.000292582    0.000451481    0.000208517
  41   H   :   -0.000514293    0.000368166    0.000203766
  42   H   :   -0.000215625   -0.000894223   -0.000293985
  43   H   :   -0.000051484    0.000399983   -0.000053935
  44   H   :    0.000439618    0.000510924    0.000167148
  45   H   :   -0.000063249    0.000225530   -0.000495015
  46   H   :    0.000407768   -0.000338456    0.000346047
  47   H   :   -0.000413018    0.000055891    0.000026143
  48   H   :    0.000162875    0.000161776    0.000169764
  49   H   :   -0.000655145   -0.000283536   -0.000127021
  50   H   :   -0.002069687   -0.002469256    0.001605068
  51   H   :   -0.000204985   -0.000399124   -0.000139020
  52   H   :    0.000268314    0.000495491    0.000186695
  53   H   :   -0.002153722   -0.001680100    0.000580538
  54   H   :   -0.000060042   -0.000451212   -0.000006614
  55   H   :    0.000469419   -0.000378714   -0.000446810
  56   H   :    0.000485648    0.000439469    0.000050802
  57   H   :   -0.002457757    0.000891160    0.000558618
  58   H   :   -0.000454892   -0.000614118   -0.000200058
  59   H   :   -0.000541279    0.001171887   -0.002305267
  60   H   :    0.000237309    0.000385316    0.000177016
  61   H   :   -0.000913341    0.002415826   -0.000614376

Difference to translation invariance:
           :    0.0000000000    0.0000000000    0.0000000000

Difference to rotation invariance:
           :    0.0000012802    0.0000149912    0.0000049114

Norm of the Cartesian gradient     ...    0.0129044368
RMS gradient                       ...    0.0009539234
MAX gradient                       ...    0.0056026981

-------
TIMINGS
-------

Total SCF gradient time     ....      182.588 sec

Densities                   ....       0.005 sec  (  0.0%)
One electron gradient       ....       2.994 sec  (  1.6%)
Two electron gradient       ....     179.589 sec  ( 98.4%)

Maximum memory used throughout the entire SCFGRAD-calculation: 106.3 MB
------------------------------------------------------------------------------
                         ORCA GEOMETRY RELAXATION STEP
------------------------------------------------------------------------------

Reading the OPT-File                    .... done
Getting information on internals        .... done
Copying old internal coords+grads       .... done
Making the new internal coordinates     .... (2022 redundants) done
Validating the new internal coordinates .... (2022 redundants) done
Calculating the B-matrix                .... done
Calculating the G,G- and P matrices     .... done
Transforming gradient to internals      .... done
Projecting the internal gradient        .... done
Number of atoms                         ....  61
Number of internal coordinates          .... 327
Current Energy                          .... -1466.585656191 Eh
Current gradient norm                   ....     0.012904437 Eh/bohr
Maximum allowed component of the step   ....  0.300
Current trust radius                    ....  0.200
Updating the Hessian (BFGS)             .... done
Forming the augmented Hessian           .... done
Diagonalizing the augmented Hessian     .... done
Last element of RFO vector              ....  0.959272966
Lowest eigenvalues of augmented Hessian:
 -0.001125286  0.001084232  0.009530596  0.012176138  0.012397783
Length of the computed step             ....  0.294473799
Warning: the length of the step is outside the trust region - taking restricted step instead
The input lambda is                     ....    -0.000057
   iter:   5  x=   -0.002526  g=   17.948903 f(x)=     0.003407
The output lambda is                    ....    -0.002543 (9 iterations)
The final length of the internal step   ....  0.200000000
Converting the step to Cartesian space:
 Initial RMS(Int)=    0.0110600253
Transforming coordinates:
 Iter   0:  RMS(Cart)=    0.0589164559 RMS(Int)=    0.3474041264
done
Storing new coordinates                 .... done
The predicted energy change is          ....    -0.000572688
Previously predicted energy change      ....    -0.001432149
Actually observed energy change         ....    -0.000911417
Ratio of predicted to observed change   ....     0.636398338
New trust radius                        ....     0.200000000

                                .--------------------.
          ----------------------|Geometry convergence|-------------------------
          Item                value                   Tolerance       Converged
          ---------------------------------------------------------------------
          Energy change      -0.0009114173            0.0000050000      NO
          RMS gradient        0.0007933981            0.0001000000      NO
          MAX gradient        0.0041872907            0.0003000000      NO
          RMS step            0.0110600253            0.0020000000      NO
          MAX step            0.1545429123            0.0040000000      NO
          ........................................................
          Max(Bonds)      0.0818      Max(Angles)    0.37
          Max(Dihed)        2.33      Max(Improp)    0.00
          ---------------------------------------------------------------------

The optimization has not yet converged - more geometry cycles are needed


    ---------------------------------------------------------------------------
                         Redundant Internal Coordinates
                            (Angstroem and degrees)

        Definition                    Value    dE/dq     Step     New-Value
    ----------------------------------------------------------------------------
     1. B(C   1,O   0)                1.1910  0.001597  0.0008    1.1918   
     2. B(C   2,C   1)                1.5145  0.000674 -0.0020    1.5125   
     3. B(H   3,C   2)                1.0841  0.000373 -0.0002    1.0839   
     4. B(C   4,C   2)                1.5353  0.000507 -0.0009    1.5344   
     5. B(C   5,C   4)                1.5592 -0.000127  0.0013    1.5605   
     6. B(C   6,C   5)                1.5087 -0.000427 -0.0008    1.5079   
     7. B(C   7,C   6)                1.3189  0.000658 -0.0002    1.3187   
     8. B(C   8,C   5)                1.5433  0.000068 -0.0011    1.5421   
     9. B(C   9,C   8)                1.5346 -0.000351 -0.0007    1.5339   
    10. B(C   9,C   2)                1.5506 -0.000627 -0.0002    1.5504   
    11. B(C  10,C   9)                1.5054 -0.000784  0.0001    1.5056   
    12. B(C  11,C  10)                1.3188 -0.000041  0.0004    1.3192   
    13. B(H  12,C   4)                1.0829  0.000016  0.0000    1.0829   
    14. B(N  13,C   1)                1.3842  0.000364 -0.0008    1.3834   
    15. B(C  14,N  13)                1.4632 -0.001651  0.0019    1.4652   
    16. B(C  15,C  14)                1.5279 -0.003082  0.0019    1.5298   
    17. B(C  16,C  15)                1.5315 -0.002036  0.0004    1.5319   
    18. B(C  17,C  16)                1.5198  0.000454 -0.0009    1.5190   
    19. B(O  18,C  17)                1.4063  0.000286  0.0010    1.4073   
    20. B(C  19,O  18)                1.4028  0.001003  0.0009    1.4036   
    21. B(C  20,C  19)                1.5273  0.001168 -0.0019    1.5254   
    22. B(O  21,C  20)                1.4023 -0.000670  0.0016    1.4039   
    23. B(C  22,C  20)                1.5377  0.000287 -0.0016    1.5361   
    24. B(C  23,C  22)                1.5253  0.000150 -0.0010    1.5243   
    25. B(O  24,C  23)                1.3951  0.000610  0.0007    1.3958   
    26. B(O  25,C  22)                1.4044 -0.000891  0.0020    1.4065   
    27. B(C  26,O  25)                1.3836 -0.000906  0.0021    1.3856   
    28. B(O  27,C  26)                1.3766 -0.000173  0.0015    1.3781   
    29. B(C  28,C  26)                1.5210  0.000452 -0.0006    1.5203   
    30. B(C  28,C  19)                1.5212  0.000098 -0.0008    1.5204   
    31. B(O  29,C  28)                1.4033  0.000534  0.0001    1.4034   
    32. B(C  30,N  13)                1.3752 -0.000244 -0.0001    1.3751   
    33. B(C  30,C   4)                1.5153  0.001077 -0.0014    1.5139   
    34. B(O  31,C  30)                1.1969  0.001230  0.0004    1.1973   
    35. B(H  32,C   5)                1.0829  0.000193 -0.0001    1.0828   
    36. B(H  33,C   6)                1.0803  0.000883 -0.0013    1.0790   
    37. B(H  34,C   7)                1.0761  0.000185 -0.0001    1.0760   
    38. B(H  35,C   7)                1.0773  0.000778 -0.0009    1.0763   
    39. B(H  36,C   8)                1.0869  0.000299 -0.0003    1.0866   
    40. B(H  37,C   8)                1.0841  0.000276 -0.0002    1.0839   
    41. B(H  38,C   9)                1.0884  0.000082  0.0003    1.0887   
    42. B(H  39,C  10)                1.0789  0.000534 -0.0005    1.0784   
    43. B(H  40,C  11)                1.0760  0.000663 -0.0007    1.0753   
    44. B(H  41,C  11)                1.0766  0.000962 -0.0013    1.0753   
    45. B(H  42,C  14)                1.0763 -0.000299  0.0002    1.0765   
    46. B(H  43,C  14)                1.0830  0.000385 -0.0001    1.0829   
    47. B(H  44,C  15)                1.0838  0.000171 -0.0005    1.0834   
    48. B(H  45,C  15)                1.0854  0.000289 -0.0003    1.0852   
    49. B(H  46,C  16)                1.0880  0.000375 -0.0002    1.0878   
    50. B(H  47,C  16)                1.0865  0.000062  0.0000    1.0865   
    51. B(H  48,C  17)                1.0888 -0.000198  0.0002    1.0890   
    52. B(H  48,H  34)                3.3105 -0.001133  0.0818    3.3923   
    53. B(H  49,C  17)                1.0838  0.003525 -0.0041    1.0797   
    54. B(H  50,C  19)                1.0894  0.000466 -0.0004    1.0891   
    55. B(H  51,C  20)                1.0846  0.000592 -0.0004    1.0842   
    56. B(H  52,O  21)                0.9540  0.002393 -0.0014    0.9526   
    57. B(H  52,O  31)                2.1786  0.000023 -0.0073    2.1713   
    58. B(H  53,C  22)                1.0911  0.000403 -0.0004    1.0907   
    59. B(H  54,C  23)                1.0818  0.000676 -0.0007    1.0811   
    60. B(H  55,C  23)                1.0893  0.000604 -0.0008    1.0886   
    61. B(H  56,O  24)                0.9517  0.002473 -0.0019    0.9498   
    62. B(H  56,O  21)                2.0965 -0.000102 -0.0072    2.0894   
    63. B(H  57,C  26)                1.0930  0.000788 -0.0010    1.0920   
    64. B(H  58,O  27)                0.9521  0.002558 -0.0024    0.9497   
    65. B(H  58,O  29)                2.3509 -0.000178  0.0060    2.3569   
    66. B(H  59,C  28)                1.0869  0.000483 -0.0004    1.0864   
    67. B(H  60,O  29)                0.9503  0.002613 -0.0024    0.9479   
    68. A(O   0,C   1,N  13)          124.53  0.001169   -0.21    124.32   
    69. A(O   0,C   1,C   2)          127.01  0.000079   -0.00    127.01   
    70. A(C   2,C   1,N  13)          108.43 -0.001331    0.22    108.65   
    71. A(C   1,C   2,H   3)          108.03  0.000036   -0.10    107.93   
    72. A(H   3,C   2,C   4)          112.35 -0.000048   -0.01    112.34   
    73. A(H   3,C   2,C   9)          110.14 -0.000562    0.12    110.26   
    74. A(C   1,C   2,C   9)          114.69 -0.000275    0.07    114.76   
    75. A(C   4,C   2,C   9)          106.94  0.000221    0.00    106.95   
    76. A(C   1,C   2,C   4)          104.65  0.000688   -0.09    104.57   
    77. A(H  12,C   4,C  30)          107.15 -0.000429   -0.05    107.11   
    78. A(C   2,C   4,H  12)          112.35  0.000034   -0.05    112.29   
    79. A(C   5,C   4,C  30)          116.85  0.001328    0.06    116.91   
    80. A(C   2,C   4,C   5)          106.81 -0.000221   -0.03    106.78   
    81. A(C   2,C   4,C  30)          104.72 -0.000240   -0.04    104.68   
    82. A(C   5,C   4,H  12)          109.02 -0.000449    0.09    109.11   
    83. A(C   6,C   5,C   8)          111.82 -0.000149   -0.19    111.63   
    84. A(C   4,C   5,C   8)          101.63 -0.000127   -0.03    101.60   
    85. A(C   6,C   5,H  32)          107.99 -0.000293    0.03    108.02   
    86. A(C   4,C   5,H  32)          109.51 -0.000112    0.05    109.55   
    87. A(C   4,C   5,C   6)          114.76  0.001066    0.11    114.87   
    88. A(C   8,C   5,H  32)          111.06 -0.000397    0.05    111.11   
    89. A(C   5,C   6,C   7)          124.90 -0.000297   -0.15    124.75   
    90. A(C   5,C   6,H  33)          116.75  0.000125    0.05    116.81   
    91. A(C   7,C   6,H  33)          118.33  0.000154    0.10    118.43   
    92. A(C   6,C   7,H  35)          122.16  0.000230   -0.16    122.00   
    93. A(C   6,C   7,H  34)          121.19 -0.000176    0.10    121.29   
    94. A(H  34,C   7,H  35)          116.66 -0.000056    0.05    116.71   
    95. A(C   9,C   8,H  36)          109.54 -0.000414    0.03    109.57   
    96. A(C   5,C   8,H  36)          109.11  0.000052   -0.01    109.10   
    97. A(H  36,C   8,H  37)          107.78  0.000145    0.02    107.80   
    98. A(C   5,C   8,C   9)          104.81  0.000276    0.01    104.82   
    99. A(C   5,C   8,H  37)          112.46 -0.000065   -0.02    112.44   
   100. A(C   9,C   8,H  37)          113.06 -0.000010   -0.02    113.04   
   101. A(C   2,C   9,C  10)          112.90  0.000030    0.05    112.96   
   102. A(C  10,C   9,H  38)          106.64 -0.000073    0.07    106.71   
   103. A(C   2,C   9,C   8)          102.64 -0.000183   -0.04    102.60   
   104. A(C   8,C   9,H  38)          108.56  0.000216   -0.01    108.56   
   105. A(C   2,C   9,H  38)          108.27  0.000378   -0.12    108.15   
   106. A(C   8,C   9,C  10)          117.50 -0.000300    0.02    117.52   
   107. A(C   9,C  10,H  39)          114.20 -0.000062    0.09    114.29   
   108. A(C  11,C  10,H  39)          119.23  0.000375   -0.07    119.17   
   109. A(C   9,C  10,C  11)          126.57 -0.000313   -0.02    126.54   
   110. A(H  40,C  11,H  41)          116.21 -0.000012    0.09    116.30   
   111. A(C  10,C  11,H  41)          122.87  0.000048   -0.09    122.78   
   112. A(C  10,C  11,H  40)          120.92 -0.000036    0.00    120.92   
   113. A(C   1,N  13,C  30)          113.41  0.001547   -0.32    113.08   
   114. A(C   1,N  13,C  14)          122.62  0.000536    0.02    122.64   
   115. A(C  14,N  13,C  30)          123.42 -0.002090    0.27    123.69   
   116. A(N  13,C  14,C  15)          115.24 -0.001145    0.33    115.56   
   117. A(H  42,C  14,H  43)          107.97 -0.000014   -0.13    107.84   
   118. A(C  15,C  14,H  43)          108.65  0.000424   -0.05    108.60   
   119. A(N  13,C  14,H  43)          107.48  0.000822   -0.25    107.23   
   120. A(C  15,C  14,H  42)          110.53 -0.000594    0.09    110.61   
   121. A(N  13,C  14,H  42)          106.72  0.000593   -0.01    106.71   
   122. A(H  44,C  15,H  45)          107.05  0.000155   -0.24    106.81   
   123. A(C  14,C  15,C  16)          116.73 -0.004187    0.34    117.07   
   124. A(C  16,C  15,H  45)          108.97  0.000662   -0.03    108.94   
   125. A(C  14,C  15,H  45)          105.63  0.000551    0.09    105.72   
   126. A(C  16,C  15,H  44)          108.41  0.000902    0.04    108.45   
   127. A(C  14,C  15,H  44)          109.64  0.002192   -0.25    109.40   
   128. A(C  17,C  16,H  47)          109.21  0.000195   -0.01    109.20   
   129. A(H  46,C  16,H  47)          106.19  0.000173   -0.05    106.14   
   130. A(C  15,C  16,H  47)          107.76 -0.000011    0.06    107.81   
   131. A(C  17,C  16,H  46)          107.21  0.000130    0.04    107.25   
   132. A(C  15,C  16,H  46)          110.02  0.000120    0.07    110.09   
   133. A(C  15,C  16,C  17)          116.03 -0.000546   -0.09    115.94   
   134. A(C  16,C  17,O  18)          110.19  0.001937   -0.07    110.12   
   135. A(O  18,C  17,H  49)          109.89  0.001024   -0.37    109.52   
   136. A(C  16,C  17,H  49)          110.52 -0.000358   -0.01    110.50   
   137. A(O  18,C  17,H  48)          109.99 -0.000587    0.09    110.08   
   138. A(C  16,C  17,H  48)          109.27 -0.001713    0.31    109.59   
   139. A(H  48,C  17,H  49)          106.92 -0.000405    0.05    106.97   
   140. A(C  17,O  18,C  19)          115.86  0.002453   -0.35    115.51   
   141. A(O  18,C  19,C  20)          111.82  0.001675   -0.19    111.63   
   142. A(C  28,C  19,H  50)          108.29  0.000021   -0.01    108.28   
   143. A(C  20,C  19,H  50)          108.96  0.000074   -0.13    108.83   
   144. A(O  18,C  19,H  50)          109.63  0.000155   -0.04    109.60   
   145. A(C  20,C  19,C  28)          108.96 -0.000469    0.07    109.03   
   146. A(O  18,C  19,C  28)          109.12 -0.001503    0.30    109.42   
   147. A(O  21,C  20,C  22)          111.29 -0.000874    0.06    111.35   
   148. A(C  19,C  20,C  22)          109.33  0.000064   -0.00    109.33   
   149. A(C  19,C  20,O  21)          113.81  0.001105   -0.12    113.69   
   150. A(O  21,C  20,H  51)          105.68 -0.000156    0.06    105.75   
   151. A(C  19,C  20,H  51)          108.31 -0.000405    0.04    108.35   
   152. A(C  22,C  20,H  51)          108.18  0.000237   -0.04    108.14   
   153. A(C  20,O  21,H  52)          113.71  0.002367   -0.35    113.36   
   154. A(O  25,C  22,H  53)          110.20  0.000119   -0.03    110.17   
   155. A(C  23,C  22,H  53)          108.04 -0.000171    0.12    108.16   
   156. A(C  20,C  22,H  53)          109.23  0.000164   -0.03    109.20   
   157. A(C  23,C  22,O  25)          106.49 -0.000132    0.07    106.56   
   158. A(C  20,C  22,O  25)          109.39 -0.000180   -0.06    109.33   
   159. A(C  20,C  22,C  23)          113.44  0.000197   -0.06    113.38   
   160. A(H  54,C  23,H  55)          107.59 -0.000177    0.09    107.69   
   161. A(C  22,C  23,H  55)          109.18 -0.000171    0.01    109.19   
   162. A(O  24,C  23,H  54)          107.35  0.000109   -0.03    107.32   
   163. A(C  22,C  23,H  54)          108.04 -0.000414    0.13    108.17   
   164. A(O  24,C  23,H  55)          111.78  0.000253   -0.09    111.69   
   165. A(C  22,C  23,O  24)          112.68  0.000356   -0.10    112.59   
   166. A(C  23,O  24,H  56)          108.85  0.001429   -0.37    108.48   
   167. A(C  22,O  25,C  26)          114.69  0.000770   -0.24    114.45   
   168. A(C  28,C  26,H  57)          109.45  0.000024   -0.00    109.45   
   169. A(O  27,C  26,H  57)          110.38 -0.000021    0.02    110.39   
   170. A(O  25,C  26,H  57)          109.75 -0.000049   -0.07    109.67   
   171. A(O  27,C  26,C  28)          111.46 -0.000318    0.12    111.58   
   172. A(O  25,C  26,C  28)          108.89 -0.000131    0.20    109.09   
   173. A(O  25,C  26,O  27)          106.87  0.000503   -0.27    106.60   
   174. A(C  26,O  27,H  58)          108.06  0.000839   -0.12    107.94   
   175. A(O  29,C  28,H  59)          110.40  0.000056    0.02    110.42   
   176. A(C  26,C  28,H  59)          107.40 -0.000103    0.09    107.49   
   177. A(C  19,C  28,H  59)          109.16  0.000036    0.03    109.18   
   178. A(C  26,C  28,O  29)          107.58  0.000033   -0.09    107.49   
   179. A(C  19,C  28,O  29)          111.89 -0.000163    0.01    111.91   
   180. A(C  19,C  28,C  26)          110.30  0.000144   -0.07    110.24   
   181. A(C  28,O  29,H  60)          108.96  0.000539   -0.10    108.86   
   182. A(N  13,C  30,O  31)          125.40  0.000219   -0.21    125.19   
   183. A(C   4,C  30,O  31)          126.04  0.000482    0.10    126.14   
   184. A(C   4,C  30,N  13)          108.55 -0.000703    0.13    108.68   
   185. D(C   9,C   2,C   1,O   0)     61.94  0.000325   -0.42     61.51   
   186. D(H   3,C   2,C   1,N  13)    116.65 -0.001303    0.86    117.51   
   187. D(H   3,C   2,C   1,O   0)    -61.31  0.001218   -0.55    -61.86   
   188. D(C   4,C   2,C   1,N  13)     -3.25 -0.001626    0.97     -2.28   
   189. D(C   4,C   2,C   1,O   0)    178.79  0.000896   -0.44    178.35   
   190. D(C   5,C   4,C   2,H   3)    123.19 -0.000885   -0.03    123.17   
   191. D(H  12,C   4,C   2,H   3)      3.70 -0.000212   -0.09      3.61   
   192. D(C   5,C   4,C   2,C   1)   -119.84 -0.000458   -0.21   -120.05   
   193. D(H  12,C   4,C   2,C   1)    120.67  0.000215   -0.27    120.40   
   194. D(H  12,C   4,C   2,C   9)   -117.26  0.000367   -0.24   -117.50   
   195. D(C   5,C   4,C   2,C   9)      2.23 -0.000306   -0.17      2.06   
   196. D(C   6,C   5,C   4,C  30)    -21.74  0.000265   -0.09    -21.83   
   197. D(C   8,C   5,C   4,C  30)   -142.59 -0.000020    0.10   -142.49   
   198. D(C   8,C   5,C   4,C   2)    -25.82  0.000306    0.07    -25.75   
   199. D(C   6,C   5,C   4,C   2)     95.03  0.000590   -0.12     94.91   
   200. D(C   6,C   5,C   4,H  12)   -143.35  0.000246   -0.15   -143.50   
   201. D(C   8,C   5,C   4,H  12)     95.79 -0.000038    0.05     95.84   
   202. D(C   7,C   6,C   5,C   8)   -126.79  0.000898   -0.24   -127.03   
   203. D(H  33,C   6,C   5,C   4)    -63.58 -0.000243    0.20    -63.38   
   204. D(C   7,C   6,C   5,C   4)    118.14  0.000463   -0.14    118.00   
   205. D(C   7,C   6,C   5,H  32)     -4.30  0.000105   -0.29     -4.59   
   206. D(H  33,C   6,C   5,C   8)     51.49  0.000192    0.09     51.59   
   207. D(H  35,C   7,C   6,C   5)     -1.35 -0.000180   -0.00     -1.35   
   208. D(H  34,C   7,C   6,H  33)      0.25 -0.000384    0.15      0.39   
   209. D(H  34,C   7,C   6,C   5)    178.51 -0.001101    0.48    178.99   
   210. D(H  35,C   7,C   6,H  33)   -179.61  0.000536   -0.34   -179.95   
   211. D(H  36,C   8,C   5,C   4)    -76.76  0.000343    0.03    -76.72   
   212. D(H  36,C   8,C   5,C   6)    160.36 -0.000772    0.02    160.38   
   213. D(C   9,C   8,C   5,H  32)    156.89 -0.000330    0.12    157.01   
   214. D(C   9,C   8,C   5,C   6)    -82.39 -0.001082    0.05    -82.35   
   215. D(C   9,C   8,C   5,C   4)     40.49  0.000033    0.06     40.56   
   216. D(H  36,C   8,C   5,H  32)     39.64 -0.000020    0.09     39.73   
   217. D(C  10,C   9,C   8,H  37)     73.27  0.000005   -0.19     73.08   
   218. D(C  10,C   9,C   8,C   5)   -163.90  0.000106   -0.23   -164.13   
   219. D(C   2,C   9,C   8,H  37)   -162.23 -0.000289   -0.14   -162.37   
   220. D(C   2,C   9,C   8,H  36)     77.56 -0.000177   -0.18     77.38   
   221. D(C   2,C   9,C   8,C   5)    -39.40 -0.000188   -0.18    -39.58   
   222. D(C  10,C   9,C   2,C   4)    149.98 -0.000229    0.23    150.21   
   223. D(C  10,C   9,C   2,C   1)    -94.48  0.000611    0.16    -94.33   
   224. D(C   8,C   9,C   2,C   4)     22.50  0.000254    0.20     22.69   
   225. D(C   8,C   9,C   2,H   3)    -99.86  0.000508    0.13    -99.73   
   226. D(C  10,C   9,C   8,H  36)    -46.95  0.000116   -0.23    -47.18   
   227. D(C   8,C   9,C   2,C   1)    138.03  0.001094    0.13    138.16   
   228. D(C  10,C   9,C   2,H   3)     27.62  0.000025    0.17     27.79   
   229. D(H  39,C  10,C   9,C   8)    174.63 -0.000200   -0.06    174.57   
   230. D(H  39,C  10,C   9,C   2)     55.43  0.000258   -0.06     55.37   
   231. D(C  11,C  10,C   9,H  38)    115.75 -0.000158    0.06    115.81   
   232. D(C  11,C  10,C   9,C   8)     -6.27 -0.000180   -0.01     -6.28   
   233. D(C  11,C  10,C   9,C   2)   -125.46  0.000277   -0.02   -125.48   
   234. D(H  41,C  11,C  10,H  39)    179.39  0.000081   -0.06    179.33   
   235. D(H  41,C  11,C  10,C   9)      0.32  0.000064   -0.11      0.21   
   236. D(H  40,C  11,C  10,H  39)     -0.29  0.000051   -0.03     -0.32   
   237. D(H  40,C  11,C  10,C   9)   -179.35  0.000035   -0.08   -179.43   
   238. D(C  30,N  13,C   1,C   2)      0.28  0.001893   -1.50     -1.22   
   239. D(C  30,N  13,C   1,O   0)    178.30 -0.000577   -0.15    178.15   
   240. D(C  14,N  13,C   1,C   2)   -171.47  0.002115   -1.04   -172.50   
   241. D(C  14,N  13,C   1,O   0)      6.56 -0.000354    0.31      6.86   
   242. D(H  43,C  14,N  13,C   1)     48.18 -0.000943    1.75     49.92   
   243. D(H  42,C  14,N  13,C  30)     -7.12 -0.000352    2.03     -5.09   
   244. D(H  42,C  14,N  13,C   1)    163.79 -0.000269    1.47    165.27   
   245. D(C  15,C  14,N  13,C  30)    115.99 -0.001431    2.33    118.32   
   246. D(C  15,C  14,N  13,C   1)    -73.09 -0.001349    1.77    -71.32   
   247. D(C  16,C  15,C  14,N  13)    -53.03  0.000340   -0.67    -53.69   
   248. D(H  44,C  15,C  14,H  43)    -49.93 -0.000403   -0.43    -50.36   
   249. D(H  44,C  15,C  14,H  42)   -168.24 -0.000296   -0.29   -168.52   
   250. D(H  44,C  15,C  14,N  13)     70.70  0.000208   -0.56     70.14   
   251. D(C  16,C  15,C  14,H  43)   -173.66 -0.000271   -0.53   -174.19   
   252. D(C  16,C  15,C  14,H  42)     68.04 -0.000164   -0.39     67.65   
   253. D(H  46,C  16,C  15,H  45)   -165.89 -0.000742   -0.44   -166.34   
   254. D(H  46,C  16,C  15,H  44)    -49.71  0.000292   -0.73    -50.44   
   255. D(H  46,C  16,C  15,C  14)     74.64  0.000869   -0.78     73.86   
   256. D(C  17,C  16,C  15,H  45)     72.21 -0.000611   -0.47     71.74   
   257. D(C  17,C  16,C  15,H  44)   -171.61  0.000423   -0.76   -172.37   
   258. D(C  17,C  16,C  15,C  14)    -47.26  0.001000   -0.80    -48.06   
   259. D(H  48,C  17,C  16,H  47)    -53.24  0.000116    0.44    -52.79   
   260. D(H  48,C  17,C  16,H  46)     61.41  0.000485    0.40     61.81   
   261. D(H  48,C  17,C  16,C  15)   -175.21  0.000366    0.44   -174.77   
   262. D(O  18,C  17,C  16,H  47)     67.73 -0.000487    0.71     68.44   
   263. D(O  18,C  17,C  16,H  46)   -177.63 -0.000118    0.67   -176.96   
   264. D(O  18,C  17,C  16,C  15)    -54.25 -0.000237    0.71    -53.54   
   265. D(C  19,O  18,C  17,H  49)     49.14  0.000492   -1.54     47.60   
   266. D(C  19,O  18,C  17,H  48)    -68.31  0.000724   -1.43    -69.75   
   267. D(C  19,O  18,C  17,C  16)    171.15  0.001991   -1.84    169.32   
   268. D(H  50,C  19,O  18,C  17)     -0.08  0.000095    0.58      0.50   
   269. D(C  28,C  19,O  18,C  17)    118.36 -0.000681    0.73    119.09   
   270. D(C  20,C  19,O  18,C  17)   -121.03 -0.001204    0.89   -120.14   
   271. D(C  22,C  20,C  19,H  50)     64.36 -0.000090   -0.28     64.08   
   272. D(C  22,C  20,C  19,C  28)    -53.60  0.000109   -0.24    -53.84   
   273. D(C  22,C  20,C  19,O  18)   -174.30  0.001237   -0.54   -174.83   
   274. D(O  21,C  20,C  19,H  50)    -60.76  0.000195   -0.28    -61.04   
   275. D(O  21,C  20,C  19,C  28)   -178.72  0.000395   -0.24   -178.96   
   276. D(O  21,C  20,C  19,O  18)     60.58  0.001523   -0.53     60.05   
   277. D(H  52,O  21,C  20,H  51)    154.37  0.000463   -0.14    154.23   
   278. D(H  52,O  21,C  20,C  22)    -88.43  0.000204   -0.12    -88.55   
   279. D(H  52,O  21,C  20,C  19)     35.65  0.000443   -0.16     35.49   
   280. D(O  25,C  22,C  20,H  51)    -61.80  0.000075    0.33    -61.47   
   281. D(O  25,C  22,C  20,O  21)   -177.47  0.000605    0.24   -177.23   
   282. D(O  25,C  22,C  20,C  19)     55.96 -0.000240    0.35     56.31   
   283. D(C  23,C  22,C  20,H  51)     56.93 -0.000090    0.33     57.26   
   284. D(C  23,C  22,C  20,O  21)    -58.75  0.000441    0.25    -58.50   
   285. D(C  23,C  22,C  20,C  19)    174.68 -0.000405    0.35    175.03   
   286. D(H  54,C  23,C  22,H  53)     67.82 -0.000034    0.27     68.09   
   287. D(H  54,C  23,C  22,O  25)    -50.55 -0.000015    0.21    -50.34   
   288. D(H  54,C  23,C  22,C  20)   -170.93  0.000180    0.27   -170.66   
   289. D(O  24,C  23,C  22,H  53)    -50.61 -0.000112    0.28    -50.33   
   290. D(O  24,C  23,C  22,O  25)   -168.98 -0.000093    0.22   -168.76   
   291. D(O  24,C  23,C  22,C  20)     70.64  0.000102    0.28     70.93   
   292. D(H  56,O  24,C  23,H  55)     70.17  0.000269   -0.06     70.11   
   293. D(H  56,O  24,C  23,H  54)   -172.06  0.000264   -0.01   -172.08   
   294. D(H  56,O  24,C  23,C  22)    -53.23  0.000034    0.07    -53.16   
   295. D(C  26,O  25,C  22,H  53)     57.43  0.000067   -0.14     57.29   
   296. D(C  26,O  25,C  22,C  23)    174.38 -0.000148    0.02    174.40   
   297. D(C  26,O  25,C  22,C  20)    -62.67 -0.000096   -0.04    -62.71   
   298. D(H  57,C  26,O  25,C  22)    -56.68  0.000156   -0.20    -56.89   
   299. D(C  28,C  26,O  25,C  22)     63.10  0.000077   -0.12     62.98   
   300. D(O  27,C  26,O  25,C  22)   -176.38 -0.000086   -0.03   -176.41   
   301. D(H  58,O  27,C  26,H  57)     75.60 -0.000036    0.08     75.68   
   302. D(H  58,O  27,C  26,C  28)    -46.26  0.000165   -0.01    -46.27   
   303. D(H  58,O  27,C  26,O  25)   -165.11  0.000193   -0.15   -165.26   
   304. D(C  19,C  28,C  26,O  25)    -57.81  0.000096    0.17    -57.64   
   305. D(O  29,C  28,C  19,H  50)     56.15  0.000076   -0.12     56.02   
   306. D(O  29,C  28,C  19,C  20)    174.52 -0.000086   -0.25    174.28   
   307. D(O  29,C  28,C  19,O  18)    -63.14  0.000738   -0.24    -63.38   
   308. D(C  26,C  28,C  19,H  50)    -63.57  0.000044    0.02    -63.55   
   309. D(C  26,C  28,C  19,C  20)     54.81 -0.000119   -0.10     54.71   
   310. D(C  19,C  28,C  26,O  27)   -175.46 -0.000251    0.31   -175.15   
   311. D(C  26,C  28,C  19,O  18)    177.15  0.000706   -0.10    177.05   
   312. D(O  29,C  28,C  26,H  57)    -60.14  0.000062    0.28    -59.86   
   313. D(O  29,C  28,C  26,O  27)     62.25 -0.000160    0.39     62.63   
   314. D(O  29,C  28,C  26,O  25)    179.89  0.000187    0.25    180.14   
   315. D(C  19,C  28,C  26,H  57)     62.16 -0.000029    0.21     62.36   
   316. D(H  60,O  29,C  28,H  59)    -51.08  0.000188   -0.31    -51.39   
   317. D(H  60,O  29,C  28,C  26)   -167.99  0.000262   -0.38   -168.36   
   318. D(H  60,O  29,C  28,C  19)     70.71  0.000162   -0.24     70.46   
   319. D(O  31,C  30,N  13,C   1)   -176.47 -0.001225    0.56   -175.91   
   320. D(C   4,C  30,N  13,C  14)    174.59 -0.001325    0.90    175.49   
   321. D(C   4,C  30,N  13,C   1)      2.92 -0.001353    1.38      4.30   
   322. D(O  31,C  30,C   4,C   5)    -67.46  0.000441    0.11    -67.35   
   323. D(O  31,C  30,C   4,C   2)    174.63  0.000138    0.14    174.76   
   324. D(N  13,C  30,C   4,H  12)   -124.26  0.000555   -0.59   -124.85   
   325. D(N  13,C  30,C   4,C   5)    113.15  0.000572   -0.72    112.43   
   326. D(O  31,C  30,N  13,C  14)     -4.80 -0.001197    0.08     -4.72   
   327. D(N  13,C  30,C   4,C   2)     -4.76  0.000269   -0.69     -5.45   
    ----------------------------------------------------------------------------

Geometry step timings:
Preparation and reading OPT file:      0.002 s ( 5.788 %)
Internal coordinates            :      0.000 s ( 0.115 %)
B/P matrices and projection     :      0.012 s (29.413 %)
Hessian update/contruction      :      0.006 s (14.621 %)
Making the step                 :      0.015 s (37.561 %)
Converting the step to Cartesian:      0.001 s ( 2.577 %)
Storing new data                :      0.000 s ( 0.731 %)
Checking convergence            :      0.000 s ( 0.192 %)
Final printing                  :      0.004 s ( 8.996 %)
Total time                      :      0.039 s

Time for energy+gradient        :    603.817 s
Time for complete geometry iter :    603.934 s

         *************************************************************
         *                GEOMETRY OPTIMIZATION CYCLE   6            *
         *************************************************************
---------------------------------
CARTESIAN COORDINATES (ANGSTROEM)
---------------------------------
  O     -2.734045    2.679093    1.787867
  C     -2.523986    1.518892    1.614403
  C     -3.538674    0.397584    1.633302
  H     -3.978855    0.363347    2.623205
  C     -2.726259   -0.863991    1.312015
  C     -3.331641   -1.469363    0.006963
  C     -2.637408   -1.057508   -1.266557
  C     -2.031936   -1.887355   -2.093565
  C     -4.778608   -0.938991    0.061942
  C     -4.648368    0.507119    0.556121
  C     -5.894132    1.183811    1.062996
  C     -7.121625    0.702119    1.022378
  H     -2.781912   -1.601172    2.103356
  N     -1.272744    0.980706    1.373121
  C     -0.044148    1.775779    1.451328
  C      0.159274    2.793856    0.327529
  C      0.083957    2.272251   -1.110688
  C      0.891910    1.020398   -1.405955
  O      2.231417    1.205708   -1.016043
  C      3.027717    0.049780   -1.018973
  C      3.595283   -0.245566    0.365804
  O      2.611926   -0.453535    1.345962
  C      4.557532   -1.439586    0.276963
  C      5.271697   -1.739811    1.589675
  O      4.417312   -2.276410    2.554198
  O      5.559555   -1.160590   -0.669735
  C      5.093459   -0.982233   -1.962378
  O      6.203092   -0.802479   -2.759608
  C      4.177239    0.230486   -1.997584
  O      3.723140    0.377872   -3.317301
  C     -1.290013   -0.388753    1.246860
  O     -0.323179   -1.080727    1.105547
  H     -3.310233   -2.550430    0.065182
  H     -2.664092   -0.008692   -1.518587
  H     -1.567074   -1.535536   -2.997784
  H     -1.972536   -2.944266   -1.898840
  H     -5.343471   -1.520943    0.785139
  H     -5.284149   -1.016724   -0.893673
  H     -4.269345    1.119580   -0.260245
  H     -5.727535    2.163382    1.482167
  H     -7.950866    1.269918    1.404763
  H     -7.355265   -0.262238    0.607989
  H      0.774633    1.077626    1.482220
  H     -0.065329    2.304579    2.396121
  H     -0.557437    3.598677    0.438281
  H      1.141546    3.223583    0.494952
  H     -0.948981    2.060343   -1.377828
  H      0.408882    3.071251   -1.771435
  H      0.840158    0.795133   -2.469996
  H      0.478099    0.171001   -0.883354
  H      2.433022   -0.802647   -1.344202
  H      4.160179    0.619411    0.694691
  H      1.838839   -0.901771    1.016088
  H      3.999161   -2.329094   -0.017432
  H      6.039788   -2.475285    1.395054
  H      5.762255   -0.835378    1.945116
  H      3.669200   -1.698917    2.648503
  H      4.537393   -1.867400   -2.278122
  H      5.910956   -0.454118   -3.593459
  H      4.766457    1.093666   -1.700745
  H      3.300269    1.221876   -3.403400

----------------------------
CARTESIAN COORDINATES (A.U.)
----------------------------
  NO LB      ZA    FRAG     MASS         X           Y           Z
   0 O     8.0000    0    15.999   -5.166596    5.062753    3.378579
   1 C     6.0000    0    12.011   -4.769643    2.870290    3.050779
   2 C     6.0000    0    12.011   -6.687125    0.751326    3.086493
   3 H     1.0000    0     1.008   -7.518946    0.686626    4.957138
   4 C     6.0000    0    12.011   -5.151883   -1.632706    2.479349
   5 C     6.0000    0    12.011   -6.295889   -2.776693    0.013159
   6 C     6.0000    0    12.011   -4.983979   -1.998401   -2.393446
   7 C     6.0000    0    12.011   -3.839802   -3.566584   -3.956265
   8 C     6.0000    0    12.011   -9.030261   -1.774436    0.117054
   9 C     6.0000    0    12.011   -8.784143    0.958316    1.050916
  10 C     6.0000    0    12.011  -11.138295    2.237079    2.008771
  11 C     6.0000    0    12.011  -13.457920    1.326813    1.932014
  12 H     1.0000    0     1.008   -5.257052   -3.025776    3.974767
  13 N     7.0000    0    14.007   -2.405138    1.853265    2.594823
  14 C     6.0000    0    12.011   -0.083428    3.355737    2.742613
  15 C     6.0000    0    12.011    0.300984    5.279623    0.618940
  16 C     6.0000    0    12.011    0.158656    4.293932   -2.098896
  17 C     6.0000    0    12.011    1.685466    1.928272   -2.656871
  18 O     8.0000    0    15.999    4.216767    2.278457   -1.920043
  19 C     6.0000    0    12.011    5.721556    0.094070   -1.925581
  20 C     6.0000    0    12.011    6.794101   -0.464053    0.691270
  21 O     8.0000    0    15.999    4.935825   -0.857057    2.543499
  22 C     6.0000    0    12.011    8.612488   -2.720423    0.523384
  23 C     6.0000    0    12.011    9.962063   -3.287767    3.004051
  24 O     8.0000    0    15.999    8.347510   -4.301791    4.826734
  25 O     8.0000    0    15.999   10.506036   -2.193198   -1.265616
  26 C     6.0000    0    12.011    9.625243   -1.856151   -3.708357
  27 O     8.0000    0    15.999   11.722146   -1.516465   -5.214904
  28 C     6.0000    0    12.011    7.893838    0.435555   -3.774886
  29 O     8.0000    0    15.999    7.035715    0.714074   -6.268791
  30 C     6.0000    0    12.011   -2.437770   -0.734636    2.356223
  31 O     8.0000    0    15.999   -0.610719   -2.042279    2.089181
  32 H     1.0000    0     1.008   -6.255434   -4.819614    0.123176
  33 H     1.0000    0     1.008   -5.034404   -0.016426   -2.869714
  34 H     1.0000    0     1.008   -2.961340   -2.901743   -5.664991
  35 H     1.0000    0     1.008   -3.727552   -5.563857   -3.588287
  36 H     1.0000    0     1.008  -10.097697   -2.874166    1.483697
  37 H     1.0000    0     1.008   -9.985595   -1.921329   -1.688797
  38 H     1.0000    0     1.008   -8.067892    2.115699   -0.491792
  39 H     1.0000    0     1.008  -10.823473    4.088200    2.800891
  40 H     1.0000    0     1.008  -15.024960    2.399797    2.654617
  41 H     1.0000    0     1.008  -13.899436   -0.495558    1.148933
  42 H     1.0000    0     1.008    1.463843    2.036417    2.800990
  43 H     1.0000    0     1.008   -0.123454    4.355024    4.528012
  44 H     1.0000    0     1.008   -1.053403    6.800515    0.828231
  45 H     1.0000    0     1.008    2.157210    6.091689    0.935324
  46 H     1.0000    0     1.008   -1.793314    3.893484   -2.603718
  47 H     1.0000    0     1.008    0.772675    5.803824   -3.347526
  48 H     1.0000    0     1.008    1.587668    1.502583   -4.667615
  49 H     1.0000    0     1.008    0.903476    0.323144   -1.669297
  50 H     1.0000    0     1.008    4.597746   -1.516783   -2.540174
  51 H     1.0000    0     1.008    7.861599    1.170518    1.312776
  52 H     1.0000    0     1.008    3.474902   -1.704100    1.920128
  53 H     1.0000    0     1.008    7.557318   -4.401350   -0.032941
  54 H     1.0000    0     1.008   11.413545   -4.677611    2.636269
  55 H     1.0000    0     1.008   10.889083   -1.578636    3.675737
  56 H     1.0000    0     1.008    6.933783   -3.210488    5.004946
  57 H     1.0000    0     1.008    8.574430   -3.528874   -4.305027
  58 H     1.0000    0     1.008   11.170089   -0.858159   -6.790654
  59 H     1.0000    0     1.008    9.007298    2.066729   -3.213942
  60 H     1.0000    0     1.008    6.236605    2.309011   -6.431494

--------------------------------
INTERNAL COORDINATES (ANGSTROEM)
--------------------------------
 O      0   0   0     0.000000000000     0.00000000     0.00000000
 C      1   0   0     1.191755816966     0.00000000     0.00000000
 C      2   1   0     1.512375229176   126.99283969     0.00000000
 H      3   2   1     1.083899830137   107.89655876   298.15712493
 C      3   2   1     1.534540876773   104.57935587   178.36420537
 C      5   3   2     1.560808066565   106.77325433   239.90070454
 C      6   5   3     1.507792267830   114.94171509    94.91236372
 C      7   6   5     1.318781918302   124.69268997   118.02635326
 C      6   5   3     1.542086749405   101.57985627   334.26185696
 C      9   6   5     1.533756668147   104.83795671    40.56037728
 C     10   9   6     1.505576892856   117.51523689   195.86139410
 C     11  10   9     1.319248141184   126.54187268   353.71383482
 H      5   3   2     1.082937874565   112.29862636   120.37673469
 N      2   1   3     1.383281921160   124.30421934   180.78452819
 C     14   2   1     1.465505557274   122.54309283     6.88419386
 C     15  14   2     1.529962499616   115.67571323   288.69947390
 C     16  15  14     1.531735148428   117.16439379   306.22735804
 C     17  16  15     1.518916860774   115.91439415   311.90122059
 O     18  17  16     1.407355619092   110.11493755   306.47419020
 C     19  18  17     1.403663522973   115.52722110   169.32714166
 C     20  19  18     1.525440841965   111.63062473   239.85234176
 O     21  20  19     1.403905811971   113.69418730    60.05035391
 C     21  20  19     1.536065902411   109.33393824   185.16799538
 C     23  21  20     1.524263699687   113.37827738   175.03289835
 O     24  23  21     1.395784457909   112.58440385    70.92497740
 O     23  21  20     1.406458310188   109.33168074    56.30531479
 C     26  23  21     1.385634415396   114.44492233   297.28607035
 O     27  26  23     1.378105170873   106.59570256   183.59262145
 C     27  26  23     1.520323647218   109.08649578    62.97935521
 O     29  27  26     1.403418522550   107.49023014   180.14110272
 C     14   2   1     1.375374879396   113.08191668   178.15128707
 O     31  14   2     1.197316130180   125.18008767   184.10180289
 H      6   5   3     1.082845081648   109.54814147   216.69971833
 H      7   6   5     1.079002177053   116.83405577   296.61494342
 H      8   7   6     1.075864479140   121.30911409   178.95126272
 H      8   7   6     1.076340387655   121.99055695   358.63345935
 H      9   6   5     1.086623641255   109.10504624   283.29284824
 H      9   6   5     1.083888767099   112.42949365   163.74050696
 H     10   9   6     1.088678164194   108.56494631    74.72233220
 H     11  10   9     1.078433403687   114.28585646   174.56245832
 H     12  11  10     1.075293032595   120.91667971   180.56820044
 H     12  11  10     1.075309686581   122.78456756     0.21102385
 H     15  14   2     1.076464022788   106.69822213   165.23539087
 H     15  14   2     1.082917532846   107.16245820    49.92042323
 H     16  15  14     1.083364010904   109.34698449    70.08468338
 H     16  15  14     1.085152128914   105.69635420   184.71092990
 H     17  16  15     1.087763699785   110.09788236    73.85170424
 H     17  16  15     1.086537602495   107.81075257   189.21481525
 H     18  17  16     1.088854393277   109.58399829   185.25900203
 H     18  17  16     1.079735195022   110.51204210    67.61168709
 H     20  19  18     1.089067190955   109.59769537     0.49628098
 H     21  20  19     1.084186369784   108.34680850   302.80945089
 H     22  21  20     0.952572922772   113.35317191    35.48850486
 H     23  21  20     1.090720375835   109.19864008   295.70155606
 H     24  23  21     1.081093808212   108.17003086   189.34458331
 H     24  23  21     1.088569991843   109.18974666   306.26961472
 H     25  24  23     0.949770025211   108.48227858   306.83971215
 H     27  26  23     1.091981718331   109.67562529   303.11385140
 H     28  27  26     0.949739799741   107.94349876   194.73521796
 H     29  27  26     1.086448348095   107.49270923    61.26389261
 H     30  29  27     0.947932283640   108.86007956   191.63755343

---------------------------
INTERNAL COORDINATES (A.U.)
---------------------------
 O      0   0   0     0.000000000000     0.00000000     0.00000000
 C      1   0   0     2.252092112573     0.00000000     0.00000000
 C      2   1   0     2.857974994870   126.99283969     0.00000000
 H      3   2   1     2.048273835562   107.89655876   298.15712493
 C      3   2   1     2.899861998409   104.57935587   178.36420537
 C      5   3   2     2.949499793422   106.77325433   239.90070454
 C      6   5   3     2.849314453042   114.94171509    94.91236372
 C      7   6   5     2.492136655957   124.69268997   118.02635326
 C      6   5   3     2.914121631124   101.57985627   334.26185696
 C      9   6   5     2.898380058873   104.83795671    40.56037728
 C     10   9   6     2.845128001058   117.51523689   195.86139410
 C     11  10   9     2.493017689522   126.54187268   353.71383482
 H      5   3   2     2.046456002979   112.29862636   120.37673469
 N      2   1   3     2.614023996998   124.30421934   180.78452819
 C     14   2   1     2.769404150987   122.54309283     6.88419386
 C     15  14   2     2.891210119445   115.67571323   288.69947390
 C     16  15  14     2.894559940230   117.16439379   306.22735804
 C     17  16  15     2.870336887058   115.91439415   311.90122059
 O     18  17  16     2.659516693118   110.11493755   306.47419020
 C     19  18  17     2.652539642594   115.52722110   169.32714166
 C     20  19  18     2.882665424811   111.63062473   239.85234176
 O     21  20  19     2.652997502445   113.69418730    60.05035391
 C     21  20  19     2.902743879212   109.33393824   185.16799538
 C     23  21  20     2.880440948286   113.37827738   175.03289835
 O     24  23  21     2.637650367431   112.58440385    70.92497740
 O     23  21  20     2.657821025032   109.33168074    56.30531479
 C     26  23  21     2.618469566835   114.44492233   297.28607035
 O     27  26  23     2.604241356691   106.59570256   183.59262145
 C     27  26  23     2.872995328166   109.08649578    62.97935521
 O     29  27  26     2.652076658893   107.49023014   180.14110272
 C     14   2   1     2.599081853534   113.08191668   178.15128707
 O     31  14   2     2.262599581766   125.18008767   184.10180289
 H      6   5   3     2.046280649778   109.54814147   216.69971833
 H      7   6   5     2.039018612536   116.83405577   296.61494342
 H      8   7   6     2.033089222789   121.30911409   178.95126272
 H      8   7   6     2.033988559546   121.99055695   358.63345935
 H      9   6   5     2.053421092617   109.10504624   283.29284824
 H      9   6   5     2.048252929450   112.42949365   163.74050696
 H     10   9   6     2.057303578307   108.56494631    74.72233220
 H     11  10   9     2.037943786642   114.28585646   174.56245832
 H     12  11  10     2.032009345319   120.91667971   180.56820044
 H     12  11  10     2.032040816791   122.78456756     0.21102385
 H     15  14   2     2.034222196089   106.69822213   165.23539087
 H     15  14   2     2.046417562700   107.16245820    49.92042323
 H     16  15  14     2.047261283954   109.34698449    70.08468338
 H     16  15  14     2.050640337289   105.69635420   184.71092990
 H     17  16  15     2.055575491015   110.09788236    73.85170424
 H     17  16  15     2.053258502922   107.81075257   189.21481525
 H     18  17  16     2.057636603011   109.58399829   185.25900203
 H     18  17  16     2.040403815747   110.51204210    67.61168709
 H     20  19  18     2.058038732345   109.59769537     0.49628098
 H     21  20  19     2.048815317023   108.34680850   302.80945089
 H     22  21  20     1.800101946627   113.35317191    35.48850486
 H     23  21  20     2.061162799016   109.19864008   295.70155606
 H     24  23  21     2.042971222599   108.17003086   189.34458331
 H     24  23  21     2.057099162189   109.18974666   306.26961472
 H     25  24  23     1.794805237855   108.48227858   306.83971215
 H     27  26  23     2.063546390895   109.67562529   303.11385140
 H     28  27  26     1.794748119996   107.94349876   194.73521796
 H     29  27  26     2.053089836551   107.49270923    61.26389261
 H     30  29  27     1.791332409582   108.86007956   191.63755343

------------------------------------------------------------------------------
                   ___                                                        
                  /   \      - P O W E R E D   B Y -                         
                 /     \                                                     
                 |  |  |   _    _      __       _____    __    __             
                 |  |  |  | |  | |    /  \     |  _  \  |  |  /  |          
                  \  \/   | |  | |   /    \    | | | |  |  | /  /          
                 / \  \   | |__| |  /  /\  \   | |_| |  |  |/  /          
                |  |  |   |  __  | /  /__\  \  |    /   |      \           
                |  |  |   | |  | | |   __   |  |    \   |  |\   \          
                \     /   | |  | | |  |  |  |  | |\  \  |  | \   \       
                 \___/    |_|  |_| |__|  |__|  |_| \__\ |__|  \__/        
                                                                              
                      - O R C A' S   B I G   F R I E N D -                    
                                      &                                       
                       - I N T E G R A L  F E E D E R -                       
                                                                              
 v1 FN, 2020, v2 2021, v3 2022-2024                                           
------------------------------------------------------------------------------


----------------------
SHARK INTEGRAL PACKAGE
----------------------

Number of atoms                             ...     61
Number of basis functions                   ...    482
Number of shells                            ...    242
Maximum angular momentum                    ...      2
Integral batch strategy                     ... SHARK/LIBINT Hybrid
RI-J (if used) integral strategy            ... SPLIT-RIJ (Revised 2003 algorithm where possible)
Printlevel                                  ...      1
Contraction scheme used                     ... SEGMENTED contraction
Prescreening option                         ... SCHWARTZ
   Thresh                                   ... 2.500e-11
   Tcut                                     ... 2.500e-12
   Tpresel                                  ... 2.500e-12 
Coulomb Range Separation                    ... NOT USED
Exchange Range Separation                   ... NOT USED
Multipole approximations                    ... NOT USED
Finite Nucleus Model                        ... NOT USED
CABS basis                                  ... NOT available
Auxiliary Coulomb fitting basis             ... NOT available
Auxiliary J/K fitting basis                 ... NOT available
Auxiliary Correlation fitting basis         ... NOT available
Auxiliary 'external' fitting basis          ... NOT available

Checking pre-screening integrals            ... done (  0.0 sec) Dimension = 242
Check shell pair data                       ... done (  0.0 sec)
Shell pair information
Shell pair cut-off parameter TPreSel        ...   2.5e-12
Total number of shell pairs                 ...     29403
Shell pairs after pre-screening             ...     18406
Total number of primitive shell pairs       ...    165748
Primitive shell pairs kept                  ...     54712
          la=0 lb=0:   7014 shell pairs
          la=1 lb=0:   6156 shell pairs
          la=1 lb=1:   1372 shell pairs
          la=2 lb=0:   2483 shell pairs
          la=2 lb=1:   1148 shell pairs
          la=2 lb=2:    233 shell pairs

Calculating one electron integrals          ... done (  0.2 sec)
Calculating Nuclear repulsion               ... done (  0.0 sec) ENN=   3231.766540062640 Eh

Diagonalization of the overlap matrix:
Smallest eigenvalue                        ... 1.159e-03
Time for diagonalization                   ...    0.022 sec
Threshold for overlap eigenvalues          ... 1.000e-07
Number of eigenvalues below threshold      ... 0
Time for construction of square roots      ...    0.011 sec
Total time needed                          ...    0.034 sec

-------------------
DFT GRID GENERATION
-------------------

General Integration Accuracy     IntAcc      ... 4.388
Radial Grid Type                 RadialGrid  ... OptM3 with GC (2021)
Angular Grid (max. ang.)         AngularGrid ... 4 (Lebedev-302)
Angular grid pruning method      GridPruning ... 4 (adaptive)
Weight generation scheme         WeightScheme... mBecke (2022)
Basis function cutoff            BFCut       ... 1.0000e-11
Integration weight cutoff        WCut        ... 1.0000e-14
Partially contracted basis set               ... off
Rotationally invariant grid construction     ... off
Angular grids for H and He will be reduced by one unit

Total number of grid points                  ...   276027
Total number of batches                      ...     4343
Average number of points per batch           ...       63
Average number of grid points per atom       ...     4525
Initializing property integral containers    ... done (  0.0 sec)

SHARK setup successfully completed in   4.6 seconds

Maximum memory used throughout the entire STARTUP-calculation: 121.9 MB
Occupation numbers will be reassigned to an Aufbau configuration
             **** ENERGY FILE WAS UPDATED (monomer_hf_opt.en.tmp) ****
Finished Guess after   0.2 sec
Maximum memory used throughout the entire GUESS-calculation: 46.4 MB
----------------------------------------D-I-I-S--------------------------------------------
Iteration    Energy (Eh)           Delta-E    RMSDP     MaxDP     DIISErr   Damp  Time(sec)
-------------------------------------------------------------------------------------------
               ***  Starting incremental Fock matrix formation  ***
    1    -1466.5814953938361214     0.00e+00  5.94e-05  1.63e-03  1.34e-02  0.700  51.8
    2    -1466.5824992111965912    -1.00e-03  5.39e-05  1.50e-03  1.10e-02  0.700  38.8
                               ***Turning on AO-DIIS***
    3    -1466.5833376822329228    -8.38e-04  5.38e-05  1.53e-03  8.82e-03  0.700  38.4
    4    -1466.5840034565326278    -6.66e-04  1.49e-04  4.07e-03  6.55e-03  0.000  38.2
                              *** Initializing SOSCF ***
---------------------------------------S-O-S-C-F--------------------------------------
Iteration    Energy (Eh)           Delta-E    RMSDP     MaxDP     MaxGrad    Time(sec)
--------------------------------------------------------------------------------------
    5    -1466.5860192576928966    -2.02e-03  1.85e-05  4.91e-04  5.92e-04    40.9
               *** Restarting incremental Fock matrix formation ***
    6    -1466.5860305956866796    -1.13e-05  9.33e-06  2.69e-04  1.30e-04    51.9
    7    -1466.5860329218330662    -2.33e-06  6.82e-06  2.17e-04  6.42e-05    32.3
    8    -1466.5860335545567068    -6.33e-07  1.33e-06  6.90e-05  1.72e-05    31.2
    9    -1466.5860335749239312    -2.04e-08  5.75e-07  2.75e-05  9.30e-06    26.4
   10    -1466.5860335853212746    -1.04e-08  2.59e-07  1.28e-05  3.40e-06    24.0
   11    -1466.5860335883826338    -3.06e-09  1.15e-07  7.84e-06  1.73e-06    21.6
                 **** Energy Check signals convergence ****

               *****************************************************
               *                     SUCCESS                       *
               *           SCF CONVERGED AFTER  11 CYCLES          *
               *****************************************************

             **** ENERGY FILE WAS UPDATED (monomer_hf_opt.en.tmp) ****

----------------
TOTAL SCF ENERGY
----------------

Total Energy       :      -1466.58603358838263 Eh          -39907.83485 eV

Components:
Nuclear Repulsion  :       3231.76654006264016 Eh           87940.83838 eV
Electronic Energy  :      -4698.35257365102279 Eh         -127848.67323 eV
One Electron Energy:      -8438.22264515590905 Eh         -229615.71161 eV
Two Electron Energy:       3739.87007150488625 Eh          101767.03838 eV

Virial components:
Potential Energy   :      -2933.25685279955633 Eh          -79817.97683 eV
Kinetic Energy     :       1466.67081921117347 Eh           39910.14198 eV
Virial Ratio       :          1.99994219178450

---------------
SCF CONVERGENCE
---------------

  Last Energy change         ...    3.0614e-09  Tolerance :   1.0000e-08
  Last MAX-Density change    ...    7.8442e-06  Tolerance :   1.0000e-07
  Last RMS-Density change    ...    1.1474e-07  Tolerance :   5.0000e-09
  Last DIIS Error            ...    5.9244e-04  Tolerance :   5.0000e-07
  Last Orbital Gradient      ...    1.7307e-06  Tolerance :   1.0000e-05
  Last Orbital Rotation      ...    5.4504e-06  Tolerance :   1.0000e-05


Total SCF time: 0 days 0 hours 6 min 35 sec 
Finished LeanSCF after 395.7 sec

Maximum memory used throughout the entire LEANSCF-calculation: 48.7 MB

-------------------------   --------------------
FINAL SINGLE POINT ENERGY     -1466.586033588383
-------------------------   --------------------

------------------------------------------------------------------------------
                         ORCA SCF GRADIENT CALCULATION
------------------------------------------------------------------------------

Nuc. rep. gradient        (SHARK) ... done (  0.0 sec)
HCore & Overlap gradient  (SHARK) ... done (  3.0 sec)
Two-electron gradient     (SHARK) ... done (179.5 sec)

------------------
CARTESIAN GRADIENT
------------------

   1   O   :    0.000030812    0.002107940    0.000720821
   2   C   :   -0.000698621   -0.002358814   -0.001589081
   3   C   :    0.000677430   -0.000542768    0.000091112
   4   H   :   -0.000328374   -0.000245508    0.000012073
   5   C   :   -0.000167106    0.000632903   -0.001167820
   6   C   :   -0.000534002    0.000912443   -0.000060068
   7   C   :   -0.000519066   -0.000442614    0.000655949
   8   C   :   -0.000127171   -0.000459416   -0.000094868
   9   C   :    0.000401531    0.000219400   -0.000155006
  10   C   :    0.000070036   -0.000379777    0.000220485
  11   C   :    0.000826728   -0.000203458   -0.000132708
  12   C   :   -0.000461064   -0.000323236   -0.000108725
  13   H   :    0.000266546    0.000220384    0.000221468
  14   N   :    0.000645262   -0.000066947   -0.000325961
  15   C   :   -0.000578243   -0.000042565   -0.000501433
  16   C   :    0.000074291   -0.000593372   -0.000441178
  17   C   :    0.000289186   -0.000505889    0.000271414
  18   C   :   -0.000375516    0.000253779    0.000086205
  19   O   :   -0.000192476    0.000539399    0.001193769
  20   C   :    0.000777377   -0.000215808   -0.000455855
  21   C   :   -0.000225805   -0.000165015   -0.000246694
  22   O   :    0.000283884   -0.000070453    0.000425424
  23   C   :   -0.000212569    0.000321562    0.000353503
  24   C   :   -0.000026413    0.000356186   -0.000673256
  25   O   :   -0.000008795   -0.000125268    0.000746592
  26   O   :    0.000991949    0.000056131    0.000298160
  27   C   :   -0.001001816    0.000549331   -0.000087090
  28   O   :    0.000780282   -0.000301689   -0.000576853
  29   C   :   -0.000143395   -0.000618973    0.000348102
  30   O   :   -0.000482680    0.000138024   -0.000366681
  31   C   :   -0.001816572    0.000778669    0.003518262
  32   O   :    0.001119382   -0.000825684   -0.001050883
  33   H   :   -0.000097905   -0.000185955    0.000007029
  34   H   :   -0.000015907    0.000026862    0.000058583
  35   H   :    0.000433239    0.000653081   -0.000067978
  36   H   :   -0.000074785   -0.000082333    0.000092112
  37   H   :    0.000101446   -0.000076656    0.000084734
  38   H   :   -0.000063747    0.000060289   -0.000099520
  39   H   :    0.000101178    0.000126153   -0.000236763
  40   H   :    0.000025918    0.000167160    0.000088493
  41   H   :   -0.000067410    0.000111287    0.000056064
  42   H   :    0.000155997    0.000001622   -0.000009450
  43   H   :    0.000573022   -0.000233955   -0.000151256
  44   H   :   -0.000019875   -0.000030637    0.000301077
  45   H   :    0.000234675    0.000123170    0.000010052
  46   H   :    0.000073427    0.000299260    0.000056053
  47   H   :   -0.000151092    0.000099496   -0.000018492
  48   H   :    0.000054248    0.000098602   -0.000067247
  49   H   :   -0.000590445   -0.000379225   -0.000300358
  50   H   :    0.000725669    0.000700771   -0.000583462
  51   H   :   -0.000151224   -0.000282572    0.000250085
  52   H   :    0.000247458    0.000233428   -0.000040841
  53   H   :   -0.000608916    0.000067812   -0.000314029
  54   H   :   -0.000200931   -0.000097390   -0.000084599
  55   H   :    0.000063103   -0.000183341   -0.000171497
  56   H   :    0.000054330    0.000088703    0.000002402
  57   H   :   -0.000360077    0.000030116   -0.000411413
  58   H   :   -0.000170384   -0.000268416    0.000087318
  59   H   :   -0.000003657    0.000223528    0.000298860
  60   H   :    0.000062305    0.000165246    0.000120591
  61   H   :    0.000335326   -0.000055004   -0.000085728

Difference to translation invariance:
           :   -0.0000000000    0.0000000000   -0.0000000000

Difference to rotation invariance:
           :    0.0000012603    0.0000008563   -0.0000003416

Norm of the Cartesian gradient     ...    0.0074659247
RMS gradient                       ...    0.0005518970
MAX gradient                       ...    0.0035182622

-------
TIMINGS
-------

Total SCF gradient time     ....      182.507 sec

Densities                   ....       0.005 sec  (  0.0%)
One electron gradient       ....       2.987 sec  (  1.6%)
Two electron gradient       ....     179.514 sec  ( 98.4%)

Maximum memory used throughout the entire SCFGRAD-calculation: 106.2 MB
------------------------------------------------------------------------------
                         ORCA GEOMETRY RELAXATION STEP
------------------------------------------------------------------------------

Reading the OPT-File                    .... done
Getting information on internals        .... done
Copying old internal coords+grads       .... done
Making the new internal coordinates     .... (2022 redundants) done
Validating the new internal coordinates .... (2022 redundants) done
Calculating the B-matrix                .... done
Calculating the G,G- and P matrices     .... done
Transforming gradient to internals      .... done
Projecting the internal gradient        .... done
Number of atoms                         ....  61
Number of internal coordinates          .... 327
Current Energy                          .... -1466.586033588 Eh
Current gradient norm                   ....     0.007465925 Eh/bohr
Maximum allowed component of the step   ....  0.300
Current trust radius                    ....  0.200
Updating the Hessian (BFGS)             .... done
Forming the augmented Hessian           .... done
Diagonalizing the augmented Hessian     .... done
Last element of RFO vector              ....  0.992845066
Lowest eigenvalues of augmented Hessian:
 -0.000238097  0.001038015  0.009612075  0.012133944  0.012399878
Length of the computed step             ....  0.120270220
The final length of the internal step   ....  0.120270220
Converting the step to Cartesian space:
 Initial RMS(Int)=    0.0066509583
Transforming coordinates:
 Iter   0:  RMS(Cart)=    0.0397327775 RMS(Int)=    0.0067428153
done
Storing new coordinates                 .... done
The predicted energy change is          ....    -0.000120771
Previously predicted energy change      ....    -0.000572688
Actually observed energy change         ....    -0.000377398
Ratio of predicted to observed change   ....     0.658993195
New trust radius                        ....     0.200000000

                                .--------------------.
          ----------------------|Geometry convergence|-------------------------
          Item                value                   Tolerance       Converged
          ---------------------------------------------------------------------
          Energy change      -0.0003773976            0.0000050000      NO
          RMS gradient        0.0003259351            0.0001000000      NO
          MAX gradient        0.0021516167            0.0003000000      NO
          RMS step            0.0066509583            0.0020000000      NO
          MAX step            0.0810152667            0.0040000000      NO
          ........................................................
          Max(Bonds)      0.0429      Max(Angles)    0.18
          Max(Dihed)        1.28      Max(Improp)    0.00
          ---------------------------------------------------------------------

The optimization has not yet converged - more geometry cycles are needed


    ---------------------------------------------------------------------------
                         Redundant Internal Coordinates
                            (Angstroem and degrees)

        Definition                    Value    dE/dq     Step     New-Value
    ----------------------------------------------------------------------------
     1. B(C   1,O   0)                1.1918  0.002152 -0.0012    1.1906   
     2. B(C   2,C   1)                1.5124 -0.000215  0.0005    1.5129   
     3. B(H   3,C   2)                1.0839  0.000152 -0.0002    1.0837   
     4. B(C   4,C   2)                1.5345 -0.001056  0.0011    1.5357   
     5. B(C   5,C   4)                1.5608 -0.000151  0.0001    1.5609   
     6. B(C   6,C   5)                1.5078 -0.000784  0.0010    1.5088   
     7. B(C   7,C   6)                1.3188  0.000090 -0.0000    1.3187   
     8. B(C   8,C   5)                1.5421 -0.000757  0.0010    1.5431   
     9. B(C   9,C   8)                1.5338 -0.000492  0.0008    1.5346   
    10. B(C   9,C   2)                1.5504 -0.000309  0.0004    1.5508   
    11. B(C  10,C   9)                1.5056 -0.000544  0.0008    1.5063   
    12. B(C  11,C  10)                1.3192  0.000425 -0.0004    1.3189   
    13. B(H  12,C   4)                1.0829 -0.000002 -0.0000    1.0829   
    14. B(N  13,C   1)                1.3833  0.000257 -0.0002    1.3831   
    15. B(C  14,N  13)                1.4655  0.000287  0.0001    1.4656   
    16. B(C  15,C  14)                1.5300  0.000658 -0.0001    1.5299   
    17. B(C  16,C  15)                1.5317 -0.000231  0.0006    1.5323   
    18. B(C  17,C  16)                1.5189 -0.000948  0.0009    1.5198   
    19. B(O  18,C  17)                1.4074  0.000133 -0.0006    1.4068   
    20. B(C  19,O  18)                1.4037  0.000179 -0.0008    1.4029   
    21. B(C  20,C  19)                1.5254 -0.000650  0.0009    1.5263   
    22. B(O  21,C  20)                1.4039  0.000199 -0.0006    1.4033   
    23. B(C  22,C  20)                1.5361 -0.000248  0.0006    1.5366   
    24. B(C  23,C  22)                1.5243 -0.000438  0.0007    1.5250   
    25. B(O  24,C  23)                1.3958  0.000558 -0.0010    1.3948   
    26. B(O  25,C  22)                1.4065  0.000364 -0.0008    1.4057   
    27. B(C  26,O  25)                1.3856  0.000474 -0.0008    1.3848   
    28. B(O  27,C  26)                1.3781  0.000708 -0.0010    1.3771   
    29. B(C  28,C  26)                1.5203 -0.000246  0.0004    1.5207   
    30. B(C  28,C  19)                1.5204 -0.000146  0.0004    1.5208   
    31. B(O  29,C  28)                1.4034  0.000462 -0.0007    1.4028   
    32. B(C  30,N  13)                1.3754 -0.000140  0.0004    1.3758   
    33. B(C  30,C   4)                1.5142 -0.000403  0.0009    1.5151   
    34. B(O  31,C  30)                1.1973  0.001427 -0.0010    1.1963   
    35. B(H  32,C   5)                1.0828  0.000184 -0.0002    1.0826   
    36. B(H  33,C   6)                1.0790  0.000013  0.0000    1.0790   
    37. B(H  34,C   7)                1.0759  0.000440 -0.0007    1.0752   
    38. B(H  35,C   7)                1.0763  0.000093 -0.0002    1.0762   
    39. B(H  36,C   8)                1.0866  0.000045 -0.0001    1.0865   
    40. B(H  37,C   8)                1.0839  0.000113 -0.0002    1.0837   
    41. B(H  38,C   9)                1.0887  0.000284 -0.0004    1.0883   
    42. B(H  39,C  10)                1.0784  0.000190 -0.0003    1.0782   
    43. B(H  40,C  11)                1.0753  0.000131 -0.0002    1.0751   
    44. B(H  41,C  11)                1.0753 -0.000032  0.0000    1.0753   
    45. B(H  42,C  14)                1.0765  0.000583 -0.0005    1.0760   
    46. B(H  43,C  14)                1.0829  0.000248 -0.0004    1.0825   
    47. B(H  44,C  15)                1.0834 -0.000063  0.0001    1.0835   
    48. B(H  45,C  15)                1.0852  0.000194 -0.0002    1.0849   
    49. B(H  46,C  16)                1.0878  0.000129 -0.0002    1.0875   
    50. B(H  47,C  16)                1.0865  0.000130 -0.0001    1.0864   
    51. B(H  48,C  17)                1.0889  0.000385 -0.0005    1.0883   
    52. B(H  48,H  34)                3.3920 -0.000045  0.0429    3.4348   
    53. B(H  49,C  17)                1.0797 -0.001112  0.0012    1.0809   
    54. B(H  50,C  19)                1.0891  0.000229 -0.0003    1.0888   
    55. B(H  51,C  20)                1.0842  0.000303 -0.0004    1.0838   
    56. B(H  52,O  21)                0.9526  0.000485 -0.0010    0.9516   
    57. B(H  52,O  31)                2.1713 -0.000103  0.0083    2.1795   
    58. B(H  53,C  22)                1.0907  0.000205 -0.0003    1.0905   
    59. B(H  54,C  23)                1.0811  0.000200 -0.0003    1.0808   
    60. B(H  55,C  23)                1.0886  0.000099 -0.0001    1.0884   
    61. B(H  56,O  24)                0.9498  0.000134 -0.0004    0.9493   
    62. B(H  56,O  21)                2.0894 -0.000182  0.0095    2.0989   
    63. B(H  57,C  26)                1.0920  0.000279 -0.0003    1.0917   
    64. B(H  58,O  27)                0.9497 -0.000152  0.0000    0.9498   
    65. B(H  58,O  29)                2.3569  0.000089  0.0016    2.3585   
    66. B(H  59,C  28)                1.0864  0.000198 -0.0003    1.0862   
    67. B(H  60,O  29)                0.9479 -0.000191  0.0000    0.9480   
    68. A(O   0,C   1,N  13)          124.30 -0.000459    0.06    124.36   
    69. A(O   0,C   1,C   2)          126.99  0.000340   -0.06    126.93   
    70. A(C   2,C   1,N  13)          108.70  0.000119    0.00    108.70   
    71. A(C   1,C   2,H   3)          107.90  0.000304   -0.18    107.71   
    72. A(H   3,C   2,C   4)          112.35 -0.000077   -0.00    112.35   
    73. A(H   3,C   2,C   9)          110.25  0.000074    0.00    110.25   
    74. A(C   1,C   2,C   9)          114.78 -0.000372    0.18    114.96   
    75. A(C   4,C   2,C   9)          106.95 -0.000002    0.02    106.97   
    76. A(C   1,C   2,C   4)          104.58  0.000058   -0.01    104.57   
    77. A(H  12,C   4,C  30)          107.09 -0.000124    0.08    107.17   
    78. A(C   2,C   4,H  12)          112.30 -0.000209    0.05    112.35   
    79. A(C   5,C   4,C  30)          116.98 -0.000003   -0.05    116.92   
    80. A(C   2,C   4,C   5)          106.77 -0.000112    0.02    106.80   
    81. A(C   2,C   4,C  30)          104.66  0.000099    0.01    104.68   
    82. A(C   5,C   4,H  12)          109.09  0.000320   -0.11    108.98   
    83. A(C   6,C   5,C   8)          111.60  0.000069    0.02    111.63   
    84. A(C   4,C   5,C   8)          101.58  0.000309   -0.04    101.54   
    85. A(C   6,C   5,H  32)          108.00  0.000191   -0.06    107.94   
    86. A(C   4,C   5,H  32)          109.55  0.000089   -0.04    109.51   
    87. A(C   4,C   5,C   6)          114.94 -0.000605    0.15    115.09   
    88. A(C   8,C   5,H  32)          111.10 -0.000055   -0.02    111.08   
    89. A(C   5,C   6,C   7)          124.69  0.000782   -0.13    124.56   
    90. A(C   5,C   6,H  33)          116.83 -0.000450    0.09    116.92   
    91. A(C   7,C   6,H  33)          118.46 -0.000327    0.04    118.50   
    92. A(C   6,C   7,H  35)          121.99  0.000165    0.02    122.01   
    93. A(C   6,C   7,H  34)          121.31 -0.000546    0.10    121.41   
    94. A(H  34,C   7,H  35)          116.70  0.000380   -0.12    116.58   
    95. A(C   9,C   8,H  36)          109.55  0.000164   -0.02    109.54   
    96. A(C   5,C   8,H  36)          109.11 -0.000095    0.02    109.13   
    97. A(H  36,C   8,H  37)          107.81  0.000027   -0.03    107.79   
    98. A(C   5,C   8,C   9)          104.84 -0.000298    0.06    104.90   
    99. A(C   5,C   8,H  37)          112.43  0.000221   -0.03    112.40   
   100. A(C   9,C   8,H  37)          113.04 -0.000022   -0.01    113.03   
   101. A(C   2,C   9,C  10)          112.96 -0.000026    0.00    112.96   
   102. A(C  10,C   9,H  38)          106.72  0.000031   -0.02    106.70   
   103. A(C   2,C   9,C   8)          102.59  0.000225   -0.04    102.55   
   104. A(C   8,C   9,H  38)          108.56 -0.000026    0.01    108.58   
   105. A(C   2,C   9,H  38)          108.15 -0.000013    0.02    108.18   
   106. A(C   8,C   9,C  10)          117.52 -0.000182    0.02    117.54   
   107. A(C   9,C  10,H  39)          114.29  0.000137   -0.06    114.22   
   108. A(C  11,C  10,H  39)          119.17  0.000125   -0.00    119.17   
   109. A(C   9,C  10,C  11)          126.54 -0.000262    0.06    126.61   
   110. A(H  40,C  11,H  41)          116.30  0.000140   -0.07    116.23   
   111. A(C  10,C  11,H  41)          122.78 -0.000170    0.07    122.85   
   112. A(C  10,C  11,H  40)          120.92  0.000029    0.00    120.92   
   113. A(C   1,N  13,C  30)          113.08 -0.000584    0.09    113.18   
   114. A(C   1,N  13,C  14)          122.54  0.000041   -0.13    122.41   
   115. A(C  14,N  13,C  30)          123.75  0.000539    0.04    123.79   
   116. A(N  13,C  14,C  15)          115.68  0.000468   -0.04    115.64   
   117. A(H  42,C  14,H  43)          107.85 -0.000048    0.07    107.92   
   118. A(C  15,C  14,H  43)          108.57 -0.000249   -0.06    108.52   
   119. A(N  13,C  14,H  43)          107.16 -0.000285   -0.01    107.15   
   120. A(C  15,C  14,H  42)          110.58  0.000059    0.05    110.63   
   121. A(N  13,C  14,H  42)          106.70  0.000020   -0.01    106.69   
   122. A(H  44,C  15,H  45)          106.79 -0.000250    0.09    106.88   
   123. A(C  14,C  15,C  16)          117.16  0.001302    0.00    117.17   
   124. A(C  16,C  15,H  45)          108.92 -0.000026   -0.04    108.88   
   125. A(C  14,C  15,H  45)          105.70 -0.000200   -0.02    105.68   
   126. A(C  16,C  15,H  44)          108.45 -0.000363    0.01    108.45   
   127. A(C  14,C  15,H  44)          109.35 -0.000577   -0.04    109.31   
   128. A(C  17,C  16,H  47)          109.19 -0.000041   -0.01    109.19   
   129. A(H  46,C  16,H  47)          106.13 -0.000121    0.02    106.16   
   130. A(C  15,C  16,H  47)          107.81  0.000031   -0.03    107.78   
   131. A(C  17,C  16,H  46)          107.27  0.000271   -0.02    107.25   
   132. A(C  15,C  16,H  46)          110.10 -0.000179    0.02    110.12   
   133. A(C  15,C  16,C  17)          115.91  0.000023    0.01    115.93   
   134. A(C  16,C  17,O  18)          110.11 -0.000642   -0.05    110.07   
   135. A(O  18,C  17,H  49)          109.53 -0.000384    0.18    109.71   
   136. A(C  16,C  17,H  49)          110.51  0.000319   -0.01    110.50   
   137. A(O  18,C  17,H  48)          110.07  0.000500   -0.12    109.96   
   138. A(C  16,C  17,H  48)          109.58  0.000255   -0.08    109.50   
   139. A(H  48,C  17,H  49)          106.98 -0.000021    0.09    107.06   
   140. A(C  17,O  18,C  19)          115.53 -0.000792    0.16    115.69   
   141. A(O  18,C  19,C  20)          111.63 -0.000734    0.08    111.71   
   142. A(C  28,C  19,H  50)          108.28 -0.000032   -0.02    108.26   
   143. A(C  20,C  19,H  50)          108.83 -0.000109    0.09    108.92   
   144. A(O  18,C  19,H  50)          109.60  0.000026   -0.00    109.60   
   145. A(C  20,C  19,C  28)          109.03  0.000270   -0.04    108.99   
   146. A(O  18,C  19,C  28)          109.41  0.000595   -0.11    109.30   
   147. A(O  21,C  20,C  22)          111.35  0.000295    0.03    111.37   
   148. A(C  19,C  20,C  22)          109.33 -0.000093   -0.00    109.33   
   149. A(C  19,C  20,O  21)          113.69 -0.000335    0.05    113.75   
   150. A(O  21,C  20,H  51)          105.74  0.000167   -0.06    105.69   
   151. A(C  19,C  20,H  51)          108.35  0.000140   -0.03    108.32   
   152. A(C  22,C  20,H  51)          108.14 -0.000165    0.01    108.15   
   153. A(C  20,O  21,H  52)          113.35 -0.000139    0.03    113.39   
   154. A(O  25,C  22,H  53)          110.17 -0.000008    0.02    110.19   
   155. A(C  23,C  22,H  53)          108.16  0.000118   -0.05    108.11   
   156. A(C  20,C  22,H  53)          109.20 -0.000096    0.02    109.22   
   157. A(C  23,C  22,O  25)          106.56 -0.000118   -0.00    106.55   
   158. A(C  20,C  22,O  25)          109.33  0.000210   -0.03    109.30   
   159. A(C  20,C  22,C  23)          113.38 -0.000106    0.04    113.42   
   160. A(H  54,C  23,H  55)          107.69  0.000077   -0.03    107.66   
   161. A(C  22,C  23,H  55)          109.19 -0.000123    0.01    109.20   
   162. A(O  24,C  23,H  54)          107.32  0.000012   -0.02    107.30   
   163. A(C  22,C  23,H  54)          108.17 -0.000038   -0.03    108.14   
   164. A(O  24,C  23,H  55)          111.69  0.000029    0.03    111.73   
   165. A(C  22,C  23,O  24)          112.58  0.000046    0.03    112.61   
   166. A(C  23,O  24,H  56)          108.48 -0.000103    0.12    108.61   
   167. A(C  22,O  25,C  26)          114.44 -0.000508    0.15    114.59   
   168. A(C  28,C  26,H  57)          109.45 -0.000072   -0.00    109.45   
   169. A(O  27,C  26,H  57)          110.39  0.000067   -0.01    110.38   
   170. A(O  25,C  26,H  57)          109.68  0.000044    0.03    109.71   
   171. A(O  27,C  26,C  28)          111.58  0.000096   -0.04    111.54   
   172. A(O  25,C  26,C  28)          109.09  0.000046   -0.03    109.06   
   173. A(O  25,C  26,O  27)          106.60 -0.000183    0.06    106.66   
   174. A(C  26,O  27,H  58)          107.94 -0.000317    0.03    107.97   
   175. A(O  29,C  28,H  59)          110.42  0.000055    0.00    110.43   
   176. A(C  26,C  28,H  59)          107.49 -0.000055   -0.01    107.48   
   177. A(C  19,C  28,H  59)          109.18 -0.000043    0.01    109.19   
   178. A(C  26,C  28,O  29)          107.49 -0.000002    0.01    107.50   
   179. A(C  19,C  28,O  29)          111.91  0.000102   -0.03    111.87   
   180. A(C  19,C  28,C  26)          110.24 -0.000062    0.03    110.27   
   181. A(C  28,O  29,H  60)          108.86  0.000053    0.00    108.86   
   182. A(N  13,C  30,O  31)          125.18 -0.000003    0.07    125.25   
   183. A(C   4,C  30,O  31)          126.13 -0.000261   -0.03    126.10   
   184. A(C   4,C  30,N  13)          108.69  0.000261   -0.04    108.65   
   185. D(C   9,C   2,C   1,O   0)     61.50  0.000153   -0.73     60.77   
   186. D(H   3,C   2,C   1,N  13)    117.47  0.000103   -0.24    117.24   
   187. D(H   3,C   2,C   1,O   0)    -61.84  0.000081   -0.72    -62.56   
   188. D(C   4,C   2,C   1,N  13)     -2.32  0.000015   -0.14     -2.45   
   189. D(C   4,C   2,C   1,O   0)    178.36 -0.000007   -0.62    177.75   
   190. D(C   5,C   4,C   2,H   3)    123.14 -0.000085    0.06    123.20   
   191. D(H  12,C   4,C   2,H   3)      3.62 -0.000285    0.15      3.77   
   192. D(C   5,C   4,C   2,C   1)   -120.10  0.000273   -0.17   -120.27   
   193. D(H  12,C   4,C   2,C   1)    120.38  0.000073   -0.08    120.30   
   194. D(H  12,C   4,C   2,C   9)   -117.48 -0.000329    0.14   -117.34   
   195. D(C   5,C   4,C   2,C   9)      2.04 -0.000129    0.05      2.09   
   196. D(C   6,C   5,C   4,C  30)    -21.84  0.000023    0.06    -21.78   
   197. D(C   8,C   5,C   4,C  30)   -142.49  0.000045   -0.02   -142.50   
   198. D(C   8,C   5,C   4,C   2)    -25.74  0.000088   -0.01    -25.75   
   199. D(C   6,C   5,C   4,C   2)     94.91  0.000066    0.06     94.97   
   200. D(C   6,C   5,C   4,H  12)   -143.51 -0.000069    0.07   -143.44   
   201. D(C   8,C   5,C   4,H  12)     95.84 -0.000047    0.00     95.84   
   202. D(C   7,C   6,C   5,C   8)   -126.99 -0.000123    0.00   -126.99   
   203. D(H  33,C   6,C   5,C   4)    -63.39  0.000063   -0.32    -63.71   
   204. D(C   7,C   6,C   5,C   4)    118.03 -0.000172   -0.05    117.97   
   205. D(C   7,C   6,C   5,H  32)     -4.60 -0.000019   -0.05     -4.65   
   206. D(H  33,C   6,C   5,C   8)     51.59  0.000112   -0.27     51.33   
   207. D(H  35,C   7,C   6,C   5)     -1.37  0.000144   -0.18     -1.54   
   208. D(H  34,C   7,C   6,H  33)      0.38  0.000223   -0.18      0.20   
   209. D(H  34,C   7,C   6,C   5)    178.95  0.000460   -0.46    178.49   
   210. D(H  35,C   7,C   6,H  33)   -179.93 -0.000093    0.10   -179.84   
   211. D(H  36,C   8,C   5,C   4)    -76.71 -0.000198   -0.02    -76.73   
   212. D(H  36,C   8,C   5,C   6)    160.33  0.000298   -0.18    160.15   
   213. D(C   9,C   8,C   5,H  32)    156.99  0.000034   -0.08    156.92   
   214. D(C   9,C   8,C   5,C   6)    -82.40  0.000286   -0.16    -82.56   
   215. D(C   9,C   8,C   5,C   4)     40.56 -0.000210    0.00     40.56   
   216. D(H  36,C   8,C   5,H  32)     39.73  0.000046   -0.10     39.62   
   217. D(C  10,C   9,C   8,H  37)     73.07  0.000061    0.05     73.12   
   218. D(C  10,C   9,C   8,C   5)   -164.14  0.000119    0.05   -164.09   
   219. D(C   2,C   9,C   8,H  37)   -162.38  0.000089    0.03   -162.35   
   220. D(C   2,C   9,C   8,H  36)     77.37 -0.000044    0.08     77.45   
   221. D(C   2,C   9,C   8,C   5)    -39.59  0.000148    0.03    -39.56   
   222. D(C  10,C   9,C   2,C   4)    150.20 -0.000029   -0.06    150.14   
   223. D(C  10,C   9,C   2,C   1)    -94.30 -0.000166    0.04    -94.26   
   224. D(C   8,C   9,C   2,C   4)     22.70  0.000055   -0.06     22.64   
   225. D(C   8,C   9,C   2,H   3)    -99.72  0.000106   -0.07    -99.79   
   226. D(C  10,C   9,C   8,H  36)    -47.18 -0.000072    0.10    -47.08   
   227. D(C   8,C   9,C   2,C   1)    138.21 -0.000083    0.04    138.24   
   228. D(C  10,C   9,C   2,H   3)     27.78  0.000023   -0.07     27.71   
   229. D(H  39,C  10,C   9,C   8)    174.56  0.000071    0.05    174.61   
   230. D(H  39,C  10,C   9,C   2)     55.38 -0.000073    0.09     55.47   
   231. D(C  11,C  10,C   9,H  38)    115.81 -0.000053    0.07    115.88   
   232. D(C  11,C  10,C   9,C   8)     -6.29  0.000080    0.05     -6.24   
   233. D(C  11,C  10,C   9,C   2)   -125.47 -0.000064    0.09   -125.39   
   234. D(H  41,C  11,C  10,H  39)    179.33  0.000014   -0.01    179.31   
   235. D(H  41,C  11,C  10,C   9)      0.21  0.000005   -0.01      0.20   
   236. D(H  40,C  11,C  10,H  39)     -0.32  0.000009   -0.01     -0.33   
   237. D(H  40,C  11,C  10,C   9)   -179.43 -0.000000   -0.00   -179.44   
   238. D(C  30,N  13,C   1,C   2)     -1.19 -0.000326    0.47     -0.71   
   239. D(C  30,N  13,C   1,O   0)    178.15 -0.000298    0.94    179.09   
   240. D(C  14,N  13,C   1,C   2)   -172.45 -0.000345    0.50   -171.95   
   241. D(C  14,N  13,C   1,O   0)      6.88 -0.000317    0.97      7.85   
   242. D(H  43,C  14,N  13,C   1)     49.92  0.000489   -1.20     48.72   
   243. D(H  42,C  14,N  13,C  30)     -5.09  0.000390   -1.10     -6.19   
   244. D(H  42,C  14,N  13,C   1)    165.24  0.000307   -1.13    164.11   
   245. D(C  15,C  14,N  13,C  30)    118.37  0.000800   -1.06    117.31   
   246. D(C  15,C  14,N  13,C   1)    -71.30  0.000717   -1.09    -72.39   
   247. D(C  16,C  15,C  14,N  13)    -53.77 -0.000206   -0.45    -54.22   
   248. D(H  44,C  15,C  14,H  43)    -50.37  0.000049   -0.38    -50.76   
   249. D(H  44,C  15,C  14,H  42)   -168.51  0.000223   -0.47   -168.98   
   250. D(H  44,C  15,C  14,N  13)     70.08 -0.000194   -0.47     69.61   
   251. D(C  16,C  15,C  14,H  43)   -174.23  0.000037   -0.36   -174.60   
   252. D(C  16,C  15,C  14,H  42)     67.63  0.000211   -0.45     67.18   
   253. D(H  46,C  16,C  15,H  45)   -166.33  0.000306    0.10   -166.23   
   254. D(H  46,C  16,C  15,H  44)    -50.46 -0.000201    0.19    -50.27   
   255. D(H  46,C  16,C  15,C  14)     73.85 -0.000309    0.15     74.00   
   256. D(C  17,C  16,C  15,H  45)     71.72  0.000071    0.10     71.82   
   257. D(C  17,C  16,C  15,H  44)   -172.41 -0.000436    0.19   -172.22   
   258. D(C  17,C  16,C  15,C  14)    -48.10 -0.000543    0.15    -47.95   
   259. D(H  48,C  17,C  16,H  47)    -52.79 -0.000270    0.20    -52.58   
   260. D(H  48,C  17,C  16,H  46)     61.82 -0.000290    0.21     62.03   
   261. D(H  48,C  17,C  16,C  15)   -174.74 -0.000295    0.24   -174.51   
   262. D(O  18,C  17,C  16,H  47)     68.43  0.000105   -0.03     68.40   
   263. D(O  18,C  17,C  16,H  46)   -176.97  0.000085   -0.02   -176.99   
   264. D(O  18,C  17,C  16,C  15)    -53.53  0.000080    0.00    -53.52   
   265. D(C  19,O  18,C  17,H  49)     47.60 -0.000164    0.24     47.84   
   266. D(C  19,O  18,C  17,H  48)    -69.75 -0.000204    0.10    -69.65   
   267. D(C  19,O  18,C  17,C  16)    169.33 -0.000431    0.31    169.64   
   268. D(H  50,C  19,O  18,C  17)      0.50 -0.000474    0.52      1.01   
   269. D(C  28,C  19,O  18,C  17)    119.08 -0.000142    0.43    119.51   
   270. D(C  20,C  19,O  18,C  17)   -120.15  0.000122    0.36   -119.79   
   271. D(C  22,C  20,C  19,H  50)     64.08  0.000071   -0.01     64.07   
   272. D(C  22,C  20,C  19,C  28)    -53.84  0.000019   -0.02    -53.85   
   273. D(C  22,C  20,C  19,O  18)   -174.83 -0.000437    0.10   -174.74   
   274. D(O  21,C  20,C  19,H  50)    -61.04  0.000003   -0.08    -61.12   
   275. D(O  21,C  20,C  19,C  28)   -178.95 -0.000050   -0.09   -179.04   
   276. D(O  21,C  20,C  19,O  18)     60.05 -0.000505    0.03     60.08   
   277. D(H  52,O  21,C  20,H  51)    154.23 -0.000179    0.22    154.45   
   278. D(H  52,O  21,C  20,C  22)    -88.55 -0.000125    0.21    -88.33   
   279. D(H  52,O  21,C  20,C  19)     35.49 -0.000273    0.27     35.76   
   280. D(O  25,C  22,C  20,H  51)    -61.47  0.000121   -0.01    -61.48   
   281. D(O  25,C  22,C  20,O  21)   -177.23 -0.000146    0.04   -177.19   
   282. D(O  25,C  22,C  20,C  19)     56.31  0.000143   -0.04     56.26   
   283. D(C  23,C  22,C  20,H  51)     57.26  0.000048   -0.00     57.26   
   284. D(C  23,C  22,C  20,O  21)    -58.50 -0.000219    0.05    -58.45   
   285. D(C  23,C  22,C  20,C  19)    175.03  0.000071   -0.04    175.00   
   286. D(H  54,C  23,C  22,H  53)     68.09  0.000056    0.02     68.11   
   287. D(H  54,C  23,C  22,O  25)    -50.34  0.000067    0.02    -50.32   
   288. D(H  54,C  23,C  22,C  20)   -170.66 -0.000051    0.03   -170.62   
   289. D(O  24,C  23,C  22,H  53)    -50.33  0.000038    0.05    -50.28   
   290. D(O  24,C  23,C  22,O  25)   -168.76  0.000050    0.05   -168.71   
   291. D(O  24,C  23,C  22,C  20)     70.92 -0.000068    0.06     70.99   
   292. D(H  56,O  24,C  23,H  55)     70.11  0.000143   -0.70     69.41   
   293. D(H  56,O  24,C  23,H  54)   -172.08  0.000259   -0.73   -172.80   
   294. D(H  56,O  24,C  23,C  22)    -53.16  0.000247   -0.76    -53.92   
   295. D(C  26,O  25,C  22,H  53)     57.29 -0.000007    0.05     57.35   
   296. D(C  26,O  25,C  22,C  23)    174.40  0.000062    0.00    174.40   
   297. D(C  26,O  25,C  22,C  20)    -62.71 -0.000016    0.04    -62.68   
   298. D(H  57,C  26,O  25,C  22)    -56.89  0.000009   -0.06    -56.94   
   299. D(C  28,C  26,O  25,C  22)     62.98 -0.000024   -0.06     62.92   
   300. D(O  27,C  26,O  25,C  22)   -176.41  0.000011   -0.09   -176.50   
   301. D(H  58,O  27,C  26,H  57)     75.68  0.000205   -0.54     75.14   
   302. D(H  58,O  27,C  26,C  28)    -46.26  0.000184   -0.50    -46.76   
   303. D(H  58,O  27,C  26,O  25)   -165.26  0.000187   -0.48   -165.75   
   304. D(C  19,C  28,C  26,O  25)    -57.64 -0.000098    0.07    -57.57   
   305. D(O  29,C  28,C  19,H  50)     56.02  0.000075   -0.06     55.97   
   306. D(O  29,C  28,C  19,C  20)    174.28  0.000078    0.02    174.30   
   307. D(O  29,C  28,C  19,O  18)    -63.38 -0.000281    0.02    -63.36   
   308. D(C  26,C  28,C  19,H  50)    -63.55  0.000053   -0.07    -63.61   
   309. D(C  26,C  28,C  19,C  20)     54.71  0.000056    0.01     54.72   
   310. D(C  19,C  28,C  26,O  27)   -175.15  0.000041    0.04   -175.11   
   311. D(C  26,C  28,C  19,O  18)    177.05 -0.000303    0.01    177.06   
   312. D(O  29,C  28,C  26,H  57)    -59.86 -0.000145    0.11    -59.75   
   313. D(O  29,C  28,C  26,O  27)     62.63 -0.000045    0.06     62.69   
   314. D(O  29,C  28,C  26,O  25)   -179.86 -0.000184    0.09   -179.77   
   315. D(C  19,C  28,C  26,H  57)     62.36 -0.000059    0.09     62.45   
   316. D(H  60,O  29,C  28,H  59)    -51.39  0.000135   -0.48    -51.86   
   317. D(H  60,O  29,C  28,C  26)   -168.36  0.000173   -0.47   -168.83   
   318. D(H  60,O  29,C  28,C  19)     70.46  0.000189   -0.49     69.97   
   319. D(O  31,C  30,N  13,C   1)   -175.90 -0.000403    1.12   -174.78   
   320. D(C   4,C  30,N  13,C  14)    175.43  0.000468   -0.66    174.77   
   321. D(C   4,C  30,N  13,C   1)      4.29  0.000500   -0.62      3.67   
   322. D(O  31,C  30,C   4,C   5)    -67.36  0.000355   -1.27    -68.63   
   323. D(O  31,C  30,C   4,C   2)    174.74  0.000427   -1.28    173.47   
   324. D(N  13,C  30,C   4,H  12)   -124.83 -0.000238    0.39   -124.44   
   325. D(N  13,C  30,C   4,C   5)    112.46 -0.000559    0.51    112.96   
   326. D(O  31,C  30,N  13,C  14)     -4.75 -0.000436    1.08     -3.68   
   327. D(N  13,C  30,C   4,C   2)     -5.44 -0.000487    0.50     -4.95   
    ----------------------------------------------------------------------------

Geometry step timings:
Preparation and reading OPT file:      0.003 s ( 8.552 %)
Internal coordinates            :      0.000 s ( 0.152 %)
B/P matrices and projection     :      0.011 s (38.735 %)
Hessian update/contruction      :      0.003 s (11.674 %)
Making the step                 :      0.007 s (24.704 %)
Converting the step to Cartesian:      0.001 s ( 3.316 %)
Storing new data                :      0.000 s ( 0.891 %)
Checking convergence            :      0.000 s ( 0.180 %)
Final printing                  :      0.003 s (11.793 %)
Total time                      :      0.030 s

Time for energy+gradient        :    583.118 s
Time for complete geometry iter :    583.226 s

         *************************************************************
         *                GEOMETRY OPTIMIZATION CYCLE   7            *
         *************************************************************
---------------------------------
CARTESIAN COORDINATES (ANGSTROEM)
---------------------------------
  O     -2.733997    2.677652    1.782276
  C     -2.523648    1.518773    1.608588
  C     -3.538215    0.396635    1.633242
  H     -3.962389    0.356793    2.629656
  C     -2.728813   -0.863057    1.292665
  C     -3.352166   -1.462085   -0.006634
  C     -2.676982   -1.044232   -1.289678
  C     -2.083075   -1.871505   -2.127409
  C     -4.799835   -0.933733    0.073132
  C     -4.665162    0.510665    0.573945
  C     -5.904647    1.182360    1.104596
  C     -7.131737    0.699431    1.082239
  H     -2.772410   -1.605743    2.079572
  N     -1.275504    0.981811    1.349829
  C     -0.046141    1.775251    1.427786
  C      0.157567    2.787756    0.299343
  C      0.091014    2.255042   -1.136001
  C      0.903208    1.001833   -1.418469
  O      2.239579    1.193414   -1.023096
  C      3.043134    0.043474   -1.018541
  C      3.599825   -0.250716    0.371817
  O      2.609993   -0.467293    1.342666
  C      4.572646   -1.437306    0.289575
  C      5.277887   -1.735327    1.608431
  O      4.420543   -2.281738    2.563311
  O      5.580138   -1.148188   -0.647044
  C      5.127628   -0.969698   -1.943632
  O      6.243011   -0.777303   -2.728090
  C      4.201555    0.235815   -1.984914
  O      3.759471    0.382983   -3.308020
  C     -1.293670   -0.386122    1.206311
  O     -0.328027   -1.078473    1.067069
  H     -3.328599   -2.543156    0.046159
  H     -2.711866    0.004668   -1.540471
  H     -1.637457   -1.519599   -3.040606
  H     -2.017437   -2.928401   -1.935470
  H     -5.353396   -1.520842    0.800734
  H     -5.319255   -1.006944   -0.875192
  H     -4.300579    1.128691   -0.244268
  H     -5.732304    2.159945    1.525410
  H     -7.955029    1.264208    1.481115
  H     -7.372401   -0.263030    0.667430
  H      0.771221    1.076350    1.462737
  H     -0.068471    2.308906    2.369392
  H     -0.564120    3.589412    0.401528
  H      1.137334    3.222097    0.467938
  H     -0.939768    2.038833   -1.407065
  H      0.418036    3.049873   -1.800501
  H      0.859440    0.772353   -2.481540
  H      0.485858    0.154082   -0.893618
  H      2.458369   -0.811926   -1.352887
  H      4.154352    0.617840    0.707444
  H      1.845184   -0.923454    1.007125
  H      4.024429   -2.330699   -0.011136
  H      6.053384   -2.463755    1.418339
  H      5.758439   -0.828270    1.970409
  H      3.671838   -1.706516    2.662607
  H      4.582703   -1.857970   -2.268884
  H      5.956109   -0.435851   -3.566624
  H      4.780641    1.102693   -1.680036
  H      3.324068    1.220610   -3.394278

----------------------------
CARTESIAN COORDINATES (A.U.)
----------------------------
  NO LB      ZA    FRAG     MASS         X           Y           Z
   0 O     8.0000    0    15.999   -5.166505    5.060029    3.368014
   1 C     6.0000    0    12.011   -4.769003    2.870066    3.039791
   2 C     6.0000    0    12.011   -6.686258    0.749531    3.086381
   3 H     1.0000    0     1.008   -7.487830    0.674242    4.969330
   4 C     6.0000    0    12.011   -5.156709   -1.630941    2.442782
   5 C     6.0000    0    12.011   -6.334676   -2.762940   -0.012537
   6 C     6.0000    0    12.011   -5.058763   -1.973312   -2.437138
   7 C     6.0000    0    12.011   -3.936441   -3.536632   -4.020220
   8 C     6.0000    0    12.011   -9.070374   -1.764499    0.138200
   9 C     6.0000    0    12.011   -8.815879    0.965017    1.084598
  10 C     6.0000    0    12.011  -11.158165    2.234337    2.087385
  11 C     6.0000    0    12.011  -13.477030    1.321732    2.045136
  12 H     1.0000    0     1.008   -5.239095   -3.034415    3.929821
  13 N     7.0000    0    14.007   -2.410353    1.855354    2.550807
  14 C     6.0000    0    12.011   -0.087194    3.354737    2.698125
  15 C     6.0000    0    12.011    0.297758    5.268095    0.565676
  16 C     6.0000    0    12.011    0.171992    4.261413   -2.146731
  17 C     6.0000    0    12.011    1.706816    1.893190   -2.680519
  18 O     8.0000    0    15.999    4.232190    2.255225   -1.933371
  19 C     6.0000    0    12.011    5.750691    0.082154   -1.924764
  20 C     6.0000    0    12.011    6.802684   -0.473785    0.702633
  21 O     8.0000    0    15.999    4.932172   -0.883056    2.537272
  22 C     6.0000    0    12.011    8.641048   -2.716114    0.547217
  23 C     6.0000    0    12.011    9.973761   -3.279293    3.039495
  24 O     8.0000    0    15.999    8.353616   -4.311860    4.843956
  25 O     8.0000    0    15.999   10.544932   -2.169761   -1.222736
  26 C     6.0000    0    12.011    9.689813   -1.832464   -3.672933
  27 O     8.0000    0    15.999   11.797581   -1.468889   -5.155343
  28 C     6.0000    0    12.011    7.939788    0.445626   -3.750943
  29 O     8.0000    0    15.999    7.104370    0.723733   -6.251253
  30 C     6.0000    0    12.011   -2.444681   -0.729664    2.279597
  31 O     8.0000    0    15.999   -0.619881   -2.038019    2.016467
  32 H     1.0000    0     1.008   -6.290141   -4.805869    0.087227
  33 H     1.0000    0     1.008   -5.124685    0.008822   -2.911068
  34 H     1.0000    0     1.008   -3.094345   -2.871626   -5.745913
  35 H     1.0000    0     1.008   -3.812403   -5.533876   -3.657508
  36 H     1.0000    0     1.008  -10.116452   -2.873975    1.513168
  37 H     1.0000    0     1.008  -10.051934   -1.902849   -1.653874
  38 H     1.0000    0     1.008   -8.126917    2.132917   -0.461599
  39 H     1.0000    0     1.008  -10.832485    4.081705    2.882607
  40 H     1.0000    0     1.008  -15.032826    2.389007    2.798901
  41 H     1.0000    0     1.008  -13.931819   -0.497054    1.261259
  42 H     1.0000    0     1.008    1.457397    2.034006    2.764172
  43 H     1.0000    0     1.008   -0.129392    4.363201    4.477502
  44 H     1.0000    0     1.008   -1.066033    6.783005    0.758778
  45 H     1.0000    0     1.008    2.149249    6.088881    0.884274
  46 H     1.0000    0     1.008   -1.775904    3.852836   -2.658968
  47 H     1.0000    0     1.008    0.789973    5.763424   -3.402453
  48 H     1.0000    0     1.008    1.624105    1.459535   -4.689432
  49 H     1.0000    0     1.008    0.918138    0.291173   -1.688693
  50 H     1.0000    0     1.008    4.645644   -1.534317   -2.556587
  51 H     1.0000    0     1.008    7.850587    1.167548    1.336876
  52 H     1.0000    0     1.008    3.486892   -1.745075    1.903190
  53 H     1.0000    0     1.008    7.605069   -4.404383   -0.021045
  54 H     1.0000    0     1.008   11.439238   -4.655822    2.680273
  55 H     1.0000    0     1.008   10.881873   -1.565204    3.723533
  56 H     1.0000    0     1.008    6.938767   -3.224849    5.031598
  57 H     1.0000    0     1.008    8.660054   -3.511054   -4.287570
  58 H     1.0000    0     1.008   11.255415   -0.823639   -6.739942
  59 H     1.0000    0     1.008    9.034102    2.083788   -3.174808
  60 H     1.0000    0     1.008    6.281578    2.306618   -6.414256

--------------------------------
INTERNAL COORDINATES (ANGSTROEM)
--------------------------------
 O      0   0   0     0.000000000000     0.00000000     0.00000000
 C      1   0   0     1.190552146723     0.00000000     0.00000000
 C      2   1   0     1.512993458505   126.94742526     0.00000000
 H      3   2   1     1.083674860198   107.74166946   297.43242657
 C      3   2   1     1.535561283119   104.55739164   177.73658852
 C      5   3   2     1.560635049576   106.79773117   239.78441896
 C      6   5   3     1.508865801744   115.01870706    94.96415688
 C      7   6   5     1.318673410277   124.61132569   117.95300829
 C      6   5   3     1.543134494118   101.55193504   334.23748109
 C      9   6   5     1.534677763676   104.87976046    40.55629253
 C     10   9   6     1.506349027173   117.54401054   195.91641150
 C     11  10   9     1.318890339140   126.60678854   353.76993794
 H      5   3   2     1.082915526316   112.34746345   120.31965619
 N      2   1   3     1.383166227531   124.37530938   180.18994965
 C     14   2   1     1.465249474354   122.47539061     7.83851687
 C     15  14   2     1.529721547407   115.52450436   287.59666874
 C     16  15  14     1.532457073839   117.06894247   305.84829264
 C     17  16  15     1.519862107407   115.94434709   312.07760117
 O     18  17  16     1.406737067520   110.06749295   306.46275362
 C     19  18  17     1.402884242992   115.68457537   169.63005367
 C     20  19  18     1.526286148817   111.70755904   240.21167396
 O     21  20  19     1.403289398702   113.74710530    60.07718419
 C     21  20  19     1.536599773896   109.32961189   185.26299788
 C     23  21  20     1.524980080960   113.41614479   174.99697276
 O     24  23  21     1.394775773297   112.60464272    70.98402214
 O     23  21  20     1.405661447166   109.30518340    56.26102638
 C     26  23  21     1.384834012155   114.59282479   297.32111551
 O     27  26  23     1.377123398505   106.65973474   183.49796397
 C     27  26  23     1.520716099883   109.06122005    62.91959677
 O     29  27  26     1.402750313901   107.49925052   180.23071080
 C     14   2   1     1.375560464438   113.18251143   179.10115083
 O     31  14   2     1.196329856746   125.24011618   185.22294805
 H      6   5   3     1.082616028966   109.51144043   216.71863119
 H      7   6   5     1.079029687525   116.89594661   296.29589247
 H      8   7   6     1.075333434214   121.38806833   178.52811166
 H      8   7   6     1.076186995669   122.02393242   358.46863736
 H      9   6   5     1.086522502687   109.12098563   283.25289694
 H      9   6   5     1.083732324372   112.41260963   163.74694361
 H     10   9   6     1.088277600059   108.57436947    74.78014913
 H     11  10   9     1.078173542058   114.22203133   174.62260178
 H     12  11  10     1.075120675541   120.91899689   180.56494569
 H     12  11  10     1.075321168837   122.85402518     0.20391351
 H     15  14   2     1.075995363747   106.69889082   164.13827380
 H     15  14   2     1.082547483150   107.21225802    48.72466201
 H     16  15  14     1.083479135348   109.35698261    69.65518826
 H     16  15  14     1.084905293477   105.70071987   184.41223518
 H     17  16  15     1.087536007925   110.10385905    74.00942526
 H     17  16  15     1.086396770764   107.78791096   189.39282512
 H     18  17  16     1.088437646436   109.50418209   185.46476316
 H     18  17  16     1.080894330857   110.49483599    67.77698485
 H     20  19  18     1.088781977300   109.59455321     1.01579964
 H     21  20  19     1.083759097612   108.31598101   302.89932482
 H     22  21  20     0.951632180899   113.38641379    35.75655089
 H     23  21  20     1.090468151181   109.21640677   295.64203041
 H     24  23  21     1.080803978959   108.14524280   189.37491161
 H     24  23  21     1.088443758771   109.20396672   306.25952160
 H     25  24  23     0.949368007010   108.60249996   306.08097178
 H     27  26  23     1.091676796375   109.70547968   303.05578254
 H     28  27  26     0.949758095280   107.96817358   194.25587348
 H     29  27  26     1.086171748992   107.48101673    61.34942709
 H     30  29  27     0.947963551504   108.86144759   191.16637159

---------------------------
INTERNAL COORDINATES (A.U.)
---------------------------
 O      0   0   0     0.000000000000     0.00000000     0.00000000
 C      1   0   0     2.249817505458     0.00000000     0.00000000
 C      2   1   0     2.859143278989   126.94742526     0.00000000
 H      3   2   1     2.047848703990   107.74166946   297.43242657
 C      3   2   1     2.901790286948   104.55739164   177.73658852
 C      5   3   2     2.949172838697   106.79773117   239.78441896
 C      6   5   3     2.851343138136   115.01870706    94.96415688
 C      7   6   5     2.491931605508   124.61132569   117.95300829
 C      6   5   3     2.916101581690   101.55193504   334.23748109
 C      9   6   5     2.900120677165   104.87976046    40.55629253
 C     10   9   6     2.846587123455   117.54401054   195.91641150
 C     11  10   9     2.492341541649   126.60678854   353.76993794
 H      5   3   2     2.046413770909   112.34746345   120.31965619
 N      2   1   3     2.613805367723   124.37530938   180.18994965
 C     14   2   1     2.768920224401   122.47539061     7.83851687
 C     15  14   2     2.890754785758   115.52450436   287.59666874
 C     16  15  14     2.895924181546   117.06894247   305.84829264
 C     17  16  15     2.872123144323   115.94434709   312.07760117
 O     18  17  16     2.658347800049   110.06749295   306.46275362
 C     19  18  17     2.651067016848   115.68457537   169.63005367
 C     20  19  18     2.884262823261   111.70755904   240.21167396
 O     21  20  19     2.651832650182   113.74710530    60.07718419
 C     21  20  19     2.903752750109   109.32961189   185.26299788
 C     23  21  20     2.881794712700   113.41614479   174.99697276
 O     24  23  21     2.635744229760   112.60464272    70.98402214
 O     23  21  20     2.656315172155   109.30518340    56.26102638
 C     26  23  21     2.616957023912   114.59282479   297.32111551
 O     27  26  23     2.602386075789   106.65973474   183.49796397
 C     27  26  23     2.873736956223   109.06122005    62.91959677
 O     29  27  26     2.650813927545   107.49925052   180.23071080
 C     14   2   1     2.599432558438   113.18251143   179.10115083
 O     31  14   2     2.260735795084   125.24011618   185.22294805
 H      6   5   3     2.045847802940   109.51144043   216.71863119
 H      7   6   5     2.039070599793   116.89594661   296.29589247
 H      8   7   6     2.032085693314   121.38806833   178.52811166
 H      8   7   6     2.033698690701   122.02393242   358.46863736
 H      9   6   5     2.053229968422   109.12098563   283.25289694
 H      9   6   5     2.047957295541   112.41260963   163.74694361
 H     10   9   6     2.056546621793   108.57436947    74.78014913
 H     11  10   9     2.037452719330   114.22203133   174.62260178
 H     12  11  10     2.031683637689   120.91899689   180.56494569
 H     12  11  10     2.032062515110   122.85402518     0.20391351
 H     15  14   2     2.033336558851   106.69889082   164.13827380
 H     15  14   2     2.045718270119   107.21225802    48.72466201
 H     16  15  14     2.047478837626   109.35698261    69.65518826
 H     16  15  14     2.050173885912   105.70071987   184.41223518
 H     17  16  15     2.055145215757   110.10385905    74.00942526
 H     17  16  15     2.052992369520   107.78791096   189.39282512
 H     18  17  16     2.056849065613   109.50418209   185.46476316
 H     18  17  16     2.042594265028   110.49483599    67.77698485
 H     20  19  18     2.057499756646   109.59455321     1.01579964
 H     21  20  19     2.048007889633   108.31598101   302.89932482
 H     22  21  20     1.798324202126   113.38641379    35.75655089
 H     23  21  20     2.060686163495   109.21640677   295.64203041
 H     24  23  21     2.042423524685   108.14524280   189.37491161
 H     24  23  21     2.056860616253   109.20396672   306.25952160
 H     25  24  23     1.794045533555   108.60249996   306.08097178
 H     27  26  23     2.062970171905   109.70547968   303.05578254
 H     28  27  26     1.794782693555   107.96817358   194.25587348
 H     29  27  26     2.052567139997   107.48101673    61.34942709
 H     30  29  27     1.791391497282   108.86144759   191.16637159

------------------------------------------------------------------------------
                   ___                                                        
                  /   \      - P O W E R E D   B Y -                         
                 /     \                                                     
                 |  |  |   _    _      __       _____    __    __             
                 |  |  |  | |  | |    /  \     |  _  \  |  |  /  |          
                  \  \/   | |  | |   /    \    | | | |  |  | /  /          
                 / \  \   | |__| |  /  /\  \   | |_| |  |  |/  /          
                |  |  |   |  __  | /  /__\  \  |    /   |      \           
                |  |  |   | |  | | |   __   |  |    \   |  |\   \          
                \     /   | |  | | |  |  |  |  | |\  \  |  | \   \       
                 \___/    |_|  |_| |__|  |__|  |_| \__\ |__|  \__/        
                                                                              
                      - O R C A' S   B I G   F R I E N D -                    
                                      &                                       
                       - I N T E G R A L  F E E D E R -                       
                                                                              
 v1 FN, 2020, v2 2021, v3 2022-2024                                           
------------------------------------------------------------------------------


----------------------
SHARK INTEGRAL PACKAGE
----------------------

Number of atoms                             ...     61
Number of basis functions                   ...    482
Number of shells                            ...    242
Maximum angular momentum                    ...      2
Integral batch strategy                     ... SHARK/LIBINT Hybrid
RI-J (if used) integral strategy            ... SPLIT-RIJ (Revised 2003 algorithm where possible)
Printlevel                                  ...      1
Contraction scheme used                     ... SEGMENTED contraction
Prescreening option                         ... SCHWARTZ
   Thresh                                   ... 2.500e-11
   Tcut                                     ... 2.500e-12
   Tpresel                                  ... 2.500e-12 
Coulomb Range Separation                    ... NOT USED
Exchange Range Separation                   ... NOT USED
Multipole approximations                    ... NOT USED
Finite Nucleus Model                        ... NOT USED
CABS basis                                  ... NOT available
Auxiliary Coulomb fitting basis             ... NOT available
Auxiliary J/K fitting basis                 ... NOT available
Auxiliary Correlation fitting basis         ... NOT available
Auxiliary 'external' fitting basis          ... NOT available

Checking pre-screening integrals            ... done (  0.0 sec) Dimension = 242
Check shell pair data                       ... done (  0.0 sec)
Shell pair information
Shell pair cut-off parameter TPreSel        ...   2.5e-12
Total number of shell pairs                 ...     29403
Shell pairs after pre-screening             ...     18372
Total number of primitive shell pairs       ...    165748
Primitive shell pairs kept                  ...     54601
          la=0 lb=0:   6993 shell pairs
          la=1 lb=0:   6150 shell pairs
          la=1 lb=1:   1372 shell pairs
          la=2 lb=0:   2480 shell pairs
          la=2 lb=1:   1145 shell pairs
          la=2 lb=2:    232 shell pairs

Calculating one electron integrals          ... done (  0.2 sec)
Calculating Nuclear repulsion               ... done (  0.0 sec) ENN=   3228.975892879527 Eh

Diagonalization of the overlap matrix:
Smallest eigenvalue                        ... 1.159e-03
Time for diagonalization                   ...    0.022 sec
Threshold for overlap eigenvalues          ... 1.000e-07
Number of eigenvalues below threshold      ... 0
Time for construction of square roots      ...    0.011 sec
Total time needed                          ...    0.034 sec

-------------------
DFT GRID GENERATION
-------------------

General Integration Accuracy     IntAcc      ... 4.388
Radial Grid Type                 RadialGrid  ... OptM3 with GC (2021)
Angular Grid (max. ang.)         AngularGrid ... 4 (Lebedev-302)
Angular grid pruning method      GridPruning ... 4 (adaptive)
Weight generation scheme         WeightScheme... mBecke (2022)
Basis function cutoff            BFCut       ... 1.0000e-11
Integration weight cutoff        WCut        ... 1.0000e-14
Partially contracted basis set               ... off
Rotationally invariant grid construction     ... off
Angular grids for H and He will be reduced by one unit

Total number of grid points                  ...   276048
Total number of batches                      ...     4344
Average number of points per batch           ...       63
Average number of grid points per atom       ...     4525
Initializing property integral containers    ... done (  0.0 sec)

SHARK setup successfully completed in   4.6 seconds

Maximum memory used throughout the entire STARTUP-calculation: 121.8 MB
Occupation numbers will be reassigned to an Aufbau configuration
             **** ENERGY FILE WAS UPDATED (monomer_hf_opt.en.tmp) ****
Finished Guess after   0.2 sec
Maximum memory used throughout the entire GUESS-calculation: 46.3 MB
----------------------------------------D-I-I-S--------------------------------------------
Iteration    Energy (Eh)           Delta-E    RMSDP     MaxDP     DIISErr   Damp  Time(sec)
-------------------------------------------------------------------------------------------
               ***  Starting incremental Fock matrix formation  ***
    1    -1466.5845607694332102     0.00e+00  3.30e-05  1.17e-03  8.87e-03  0.700  51.7
    2    -1466.5849026841110572    -3.42e-04  3.06e-05  1.09e-03  7.39e-03  0.700  36.9
                               ***Turning on AO-DIIS***
    3    -1466.5851914601257704    -2.89e-04  3.18e-05  1.13e-03  6.01e-03  0.700  36.5
    4    -1466.5854232417173080    -2.32e-04  9.04e-05  3.12e-03  4.56e-03  0.000  36.4
                              *** Initializing SOSCF ***
---------------------------------------S-O-S-C-F--------------------------------------
Iteration    Energy (Eh)           Delta-E    RMSDP     MaxDP     MaxGrad    Time(sec)
--------------------------------------------------------------------------------------
    5    -1466.5861419558555099    -7.19e-04  1.27e-05  4.49e-04  6.34e-04    39.3
               *** Restarting incremental Fock matrix formation ***
    6    -1466.5861482901077579    -6.33e-06  6.71e-06  2.27e-04  1.41e-04    51.7
    7    -1466.5861499262732650    -1.64e-06  6.12e-06  2.81e-04  7.03e-05    31.0
    8    -1466.5861505026164195    -5.76e-07  1.17e-06  5.74e-05  1.29e-05    30.3
    9    -1466.5861505231946467    -2.06e-08  5.14e-07  2.34e-05  7.59e-06    25.9
   10    -1466.5861505314956048    -8.30e-09  3.09e-07  2.39e-05  4.94e-06    23.4
                 **** Energy Check signals convergence ****

               *****************************************************
               *                     SUCCESS                       *
               *           SCF CONVERGED AFTER  10 CYCLES          *
               *****************************************************

             **** ENERGY FILE WAS UPDATED (monomer_hf_opt.en.tmp) ****

----------------
TOTAL SCF ENERGY
----------------

Total Energy       :      -1466.58615053149560 Eh          -39907.83803 eV

Components:
Nuclear Repulsion  :       3228.97589287952678 Eh           87864.90101 eV
Electronic Energy  :      -4695.56204341102239 Eh         -127772.73904 eV
One Electron Energy:      -8432.66758524081706 Eh         -229464.55075 eV
Two Electron Energy:       3737.10554182979467 Eh          101691.81170 eV

Virial components:
Potential Energy   :      -2933.27168689515338 Eh          -79818.38049 eV
Kinetic Energy     :       1466.68553636365777 Eh           39910.54246 eV
Virial Ratio       :          1.99993223780442

---------------
SCF CONVERGENCE
---------------

  Last Energy change         ...    8.3010e-09  Tolerance :   1.0000e-08
  Last MAX-Density change    ...    2.3860e-05  Tolerance :   1.0000e-07
  Last RMS-Density change    ...    3.0949e-07  Tolerance :   5.0000e-09
  Last DIIS Error            ...    6.3355e-04  Tolerance :   5.0000e-07
  Last Orbital Gradient      ...    4.9355e-06  Tolerance :   1.0000e-05
  Last Orbital Rotation      ...    1.5980e-05  Tolerance :   1.0000e-05


Total SCF time: 0 days 0 hours 6 min 3 sec 
Finished LeanSCF after 363.2 sec

Maximum memory used throughout the entire LEANSCF-calculation: 48.7 MB

-------------------------   --------------------
FINAL SINGLE POINT ENERGY     -1466.586150531496
-------------------------   --------------------

------------------------------------------------------------------------------
                         ORCA SCF GRADIENT CALCULATION
------------------------------------------------------------------------------

Nuc. rep. gradient        (SHARK) ... done (  0.0 sec)
HCore & Overlap gradient  (SHARK) ... done (  3.0 sec)
Two-electron gradient     (SHARK) ... done (178.9 sec)

------------------
CARTESIAN GRADIENT
------------------

   1   O   :    0.000039146   -0.000025016   -0.000438011
   2   C   :   -0.000016089    0.000022884    0.000919494
   3   C   :    0.000107110   -0.000225758    0.000027924
   4   H   :   -0.000117962    0.000026018   -0.000136486
   5   C   :    0.000108339    0.000162586    0.000630933
   6   C   :   -0.000013183    0.000294339   -0.000058055
   7   C   :    0.000091742   -0.000369452    0.000140228
   8   C   :    0.000029090   -0.000167215   -0.000005728
   9   C   :    0.000058249   -0.000028397    0.000014136
  10   C   :    0.000068564    0.000032675   -0.000080320
  11   C   :   -0.000014252    0.000017310    0.000040802
  12   C   :   -0.000031419   -0.000032495   -0.000034214
  13   H   :   -0.000148447   -0.000029529    0.000117075
  14   N   :    0.000065713   -0.000070102    0.000169895
  15   C   :   -0.000132112   -0.000363127    0.000216383
  16   C   :   -0.000084800   -0.000048808   -0.000030180
  17   C   :    0.000034151   -0.000281946   -0.000018185
  18   C   :    0.000400554    0.000251613   -0.000137788
  19   O   :   -0.000332383   -0.000074297    0.000562890
  20   C   :    0.000189313    0.000031724   -0.000508283
  21   C   :   -0.000203980    0.000165146    0.000244561
  22   O   :   -0.000097367   -0.000415607   -0.000314959
  23   C   :    0.000141297    0.000065718   -0.000039504
  24   C   :   -0.000075450   -0.000109540    0.000099062
  25   O   :    0.000118824    0.000417305    0.000096622
  26   O   :   -0.000113276    0.000111529    0.000095776
  27   C   :    0.000224503    0.000073209   -0.000049412
  28   O   :   -0.000103614   -0.000270271   -0.000203382
  29   C   :   -0.000048212   -0.000134996   -0.000019205
  30   O   :   -0.000335102    0.000115365    0.000068742
  31   C   :    0.000010956    0.000401941   -0.002411303
  32   O   :   -0.000101050   -0.000065885    0.000980317
  33   H   :   -0.000037565   -0.000027680    0.000046534
  34   H   :   -0.000001975   -0.000006298   -0.000037749
  35   H   :    0.000054918    0.000274957    0.000096639
  36   H   :   -0.000005766    0.000036396   -0.000072087
  37   H   :    0.000038283   -0.000028903   -0.000015707
  38   H   :    0.000016519    0.000007234    0.000022614
  39   H   :   -0.000058082    0.000002349   -0.000044813
  40   H   :    0.000031084   -0.000014947   -0.000004547
  41   H   :    0.000006841   -0.000027150   -0.000014095
  42   H   :    0.000001721    0.000049027    0.000026204
  43   H   :    0.000127828   -0.000012650   -0.000158165
  44   H   :    0.000103947    0.000050107    0.000019526
  45   H   :    0.000091001    0.000078700   -0.000046578
  46   H   :   -0.000016816    0.000027181    0.000079257
  47   H   :   -0.000011157    0.000100930    0.000003043
  48   H   :    0.000030383    0.000057638    0.000038210
  49   H   :   -0.000342258   -0.000137018   -0.000045529
  50   H   :    0.000005226   -0.000016721   -0.000056229
  51   H   :   -0.000049408   -0.000031658    0.000169990
  52   H   :   -0.000012756    0.000019274   -0.000038684
  53   H   :    0.000156143    0.000311294    0.000162095
  54   H   :   -0.000045298    0.000020727   -0.000002482
  55   H   :   -0.000074611   -0.000028561   -0.000086657
  56   H   :    0.000051210   -0.000035000   -0.000020843
  57   H   :   -0.000069382   -0.000233429   -0.000177163
  58   H   :    0.000034283   -0.000045229    0.000073711
  59   H   :    0.000008690    0.000178266    0.000216330
  60   H   :   -0.000042653    0.000008563    0.000015495
  61   H   :    0.000290794   -0.000054321   -0.000088143

Difference to translation invariance:
           :   -0.0000000000    0.0000000000    0.0000000000

Difference to rotation invariance:
           :   -0.0000003163    0.0000001412    0.0000016123

Norm of the Cartesian gradient     ...    0.0034673322
RMS gradient                       ...    0.0002563126
MAX gradient                       ...    0.0024113034

-------
TIMINGS
-------

Total SCF gradient time     ....      181.876 sec

Densities                   ....       0.005 sec  (  0.0%)
One electron gradient       ....       2.970 sec  (  1.6%)
Two electron gradient       ....     178.901 sec  ( 98.4%)

Maximum memory used throughout the entire SCFGRAD-calculation: 106.0 MB
------------------------------------------------------------------------------
                         ORCA GEOMETRY RELAXATION STEP
------------------------------------------------------------------------------

Reading the OPT-File                    .... done
Getting information on internals        .... done
Copying old internal coords+grads       .... done
Making the new internal coordinates     .... (2022 redundants) done
Validating the new internal coordinates .... (2022 redundants) done
Calculating the B-matrix                .... done
Calculating the G,G- and P matrices     .... done
Transforming gradient to internals      .... done
Projecting the internal gradient        .... done
Number of atoms                         ....  61
Number of internal coordinates          .... 327
Current Energy                          .... -1466.586150531 Eh
Current gradient norm                   ....     0.003467332 Eh/bohr
Maximum allowed component of the step   ....  0.300
Current trust radius                    ....  0.200
Updating the Hessian (BFGS)             .... done
Forming the augmented Hessian           .... done
Diagonalizing the augmented Hessian     .... done
Last element of RFO vector              ....  0.995629120
Lowest eigenvalues of augmented Hessian:
 -0.000093193  0.001015356  0.007907943  0.011979471  0.012402046
Length of the computed step             ....  0.093805165
The final length of the internal step   ....  0.093805165
Converting the step to Cartesian space:
 Initial RMS(Int)=    0.0051874375
Transforming coordinates:
 Iter   0:  RMS(Cart)=    0.0452216381 RMS(Int)=    0.0052928899
done
Storing new coordinates                 .... done
The predicted energy change is          ....    -0.000047007
Previously predicted energy change      ....    -0.000120771
Actually observed energy change         ....    -0.000116943
Ratio of predicted to observed change   ....     0.968308241
New trust radius                        ....     0.300000000

                                .--------------------.
          ----------------------|Geometry convergence|-------------------------
          Item                value                   Tolerance       Converged
          ---------------------------------------------------------------------
          Energy change      -0.0001169431            0.0000050000      NO
          RMS gradient        0.0001261256            0.0001000000      NO
          MAX gradient        0.0005513830            0.0003000000      NO
          RMS step            0.0051874375            0.0020000000      NO
          MAX step            0.0563877823            0.0040000000      NO
          ........................................................
          Max(Bonds)      0.0298      Max(Angles)    0.14
          Max(Dihed)        0.93      Max(Improp)    0.00
          ---------------------------------------------------------------------

The optimization has not yet converged - more geometry cycles are needed


    ---------------------------------------------------------------------------
                         Redundant Internal Coordinates
                            (Angstroem and degrees)

        Definition                    Value    dE/dq     Step     New-Value
    ----------------------------------------------------------------------------
     1. B(C   1,O   0)                1.1906 -0.000095 -0.0004    1.1902   
     2. B(C   2,C   1)                1.5130  0.000031  0.0003    1.5133   
     3. B(H   3,C   2)                1.0837 -0.000080  0.0001    1.0837   
     4. B(C   4,C   2)                1.5356 -0.000189  0.0005    1.5361   
     5. B(C   5,C   4)                1.5606 -0.000114 -0.0002    1.5604   
     6. B(C   6,C   5)                1.5089 -0.000141  0.0005    1.5093   
     7. B(C   7,C   6)                1.3187 -0.000041  0.0001    1.3187   
     8. B(C   8,C   5)                1.5431 -0.000108  0.0005    1.5437   
     9. B(C   9,C   8)                1.5347  0.000029  0.0003    1.5350   
    10. B(C   9,C   2)                1.5508  0.000069  0.0000    1.5509   
    11. B(C  10,C   9)                1.5063  0.000006  0.0002    1.5065   
    12. B(C  11,C  10)                1.3189  0.000026 -0.0002    1.3187   
    13. B(H  12,C   4)                1.0829  0.000111 -0.0001    1.0828   
    14. B(N  13,C   1)                1.3832  0.000067 -0.0001    1.3831   
    15. B(C  14,N  13)                1.4652 -0.000095 -0.0000    1.4652   
    16. B(C  15,C  14)                1.5297  0.000072 -0.0001    1.5296   
    17. B(C  16,C  15)                1.5325 -0.000103  0.0003    1.5328   
    18. B(C  17,C  16)                1.5199 -0.000334  0.0005    1.5203   
    19. B(O  18,C  17)                1.4067 -0.000247 -0.0001    1.4066   
    20. B(C  19,O  18)                1.4029 -0.000143 -0.0004    1.4025   
    21. B(C  20,C  19)                1.5263 -0.000103  0.0003    1.5266   
    22. B(O  21,C  20)                1.4033 -0.000168 -0.0002    1.4031   
    23. B(C  22,C  20)                1.5366 -0.000061  0.0002    1.5368   
    24. B(C  23,C  22)                1.5250 -0.000061  0.0004    1.5253   
    25. B(O  24,C  23)                1.3948 -0.000141 -0.0003    1.3945   
    26. B(O  25,C  22)                1.4057 -0.000097 -0.0004    1.4053   
    27. B(C  26,O  25)                1.3848  0.000003 -0.0004    1.3845   
    28. B(O  27,C  26)                1.3771 -0.000085 -0.0003    1.3768   
    29. B(C  28,C  26)                1.5207  0.000060  0.0002    1.5209   
    30. B(C  28,C  19)                1.5208 -0.000037  0.0002    1.5210   
    31. B(O  29,C  28)                1.4028  0.000042 -0.0003    1.4024   
    32. B(C  30,N  13)                1.3756 -0.000135  0.0004    1.3759   
    33. B(C  30,C   4)                1.5148 -0.000031  0.0004    1.5152   
    34. B(O  31,C  30)                1.1963 -0.000188 -0.0003    1.1961   
    35. B(H  32,C   5)                1.0826  0.000029 -0.0001    1.0825   
    36. B(H  33,C   6)                1.0790  0.000003  0.0002    1.0792   
    37. B(H  34,C   7)                1.0753 -0.000020 -0.0002    1.0751   
    38. B(H  35,C   7)                1.0762 -0.000049  0.0001    1.0763   
    39. B(H  36,C   8)                1.0865 -0.000014  0.0000    1.0865   
    40. B(H  37,C   8)                1.0837 -0.000028  0.0000    1.0838   
    41. B(H  38,C   9)                1.0883  0.000016 -0.0002    1.0881   
    42. B(H  39,C  10)                1.0782 -0.000010  0.0000    1.0782   
    43. B(H  40,C  11)                1.0751 -0.000025  0.0001    1.0752   
    44. B(H  41,C  11)                1.0753 -0.000054  0.0002    1.0755   
    45. B(H  42,C  14)                1.0760  0.000100 -0.0001    1.0759   
    46. B(H  43,C  14)                1.0825  0.000040 -0.0002    1.0824   
    47. B(H  44,C  15)                1.0835 -0.000007  0.0001    1.0836   
    48. B(H  45,C  15)                1.0849  0.000008 -0.0001    1.0849   
    49. B(H  46,C  16)                1.0875 -0.000010 -0.0001    1.0875   
    50. B(H  47,C  16)                1.0864  0.000028 -0.0000    1.0864   
    51. B(H  48,C  17)                1.0884  0.000044 -0.0003    1.0882   
    52. B(H  48,H  34)                3.4351 -0.000133  0.0298    3.4650   
    53. B(H  49,C  17)                1.0809 -0.000016  0.0007    1.0816   
    54. B(H  50,C  19)                1.0888 -0.000001 -0.0000    1.0888   
    55. B(H  51,C  20)                1.0838 -0.000003 -0.0001    1.0837   
    56. B(H  52,O  21)                0.9516 -0.000365  0.0001    0.9517   
    57. B(H  52,O  31)                2.1796 -0.000040  0.0095    2.1890   
    58. B(H  53,C  22)                1.0905  0.000006 -0.0000    1.0905   
    59. B(H  54,C  23)                1.0808 -0.000019  0.0000    1.0808   
    60. B(H  55,C  23)                1.0884 -0.000013  0.0001    1.0885   
    61. B(H  56,O  24)                0.9494 -0.000137  0.0002    0.9495   
    62. B(H  56,O  21)                2.0989 -0.000046  0.0087    2.1076   
    63. B(H  57,C  26)                1.0917 -0.000002  0.0000    1.0917   
    64. B(H  58,O  27)                0.9498 -0.000134  0.0004    0.9501   
    65. B(H  58,O  29)                2.3585 -0.000015  0.0027    2.3612   
    66. B(H  59,C  28)                1.0862 -0.000012 -0.0000    1.0862   
    67. B(H  60,O  29)                0.9480 -0.000174  0.0004    0.9484   
    68. A(O   0,C   1,N  13)          124.38 -0.000093    0.05    124.43   
    69. A(O   0,C   1,C   2)          126.95  0.000107   -0.03    126.92   
    70. A(C   2,C   1,N  13)          108.68 -0.000013   -0.02    108.65   
    71. A(C   1,C   2,H   3)          107.74  0.000008   -0.07    107.67   
    72. A(H   3,C   2,C   4)          112.34  0.000009   -0.03    112.31   
    73. A(H   3,C   2,C   9)          110.26  0.000003    0.05    110.31   
    74. A(C   1,C   2,C   9)          114.94  0.000086    0.02    114.96   
    75. A(C   4,C   2,C   9)          106.97 -0.000068    0.03    106.99   
    76. A(C   1,C   2,C   4)          104.56 -0.000039    0.00    104.56   
    77. A(H  12,C   4,C  30)          107.19  0.000317   -0.05    107.14   
    78. A(C   2,C   4,H  12)          112.35 -0.000023    0.01    112.35   
    79. A(C   5,C   4,C  30)          116.86 -0.000431    0.13    116.99   
    80. A(C   2,C   4,C   5)          106.80  0.000131   -0.00    106.79   
    81. A(C   2,C   4,C  30)          104.70  0.000115   -0.01    104.69   
    82. A(C   5,C   4,H  12)          109.01 -0.000106   -0.07    108.94   
    83. A(C   6,C   5,C   8)          111.65  0.000094    0.04    111.69   
    84. A(C   4,C   5,C   8)          101.55 -0.000041   -0.03    101.52   
    85. A(C   6,C   5,H  32)          107.95  0.000017   -0.06    107.90   
    86. A(C   4,C   5,H  32)          109.51  0.000028   -0.04    109.47   
    87. A(C   4,C   5,C   6)          115.02 -0.000039    0.11    115.13   
    88. A(C   8,C   5,H  32)          111.09 -0.000066   -0.03    111.06   
    89. A(C   5,C   6,C   7)          124.61  0.000394   -0.14    124.47   
    90. A(C   5,C   6,H  33)          116.90 -0.000164    0.08    116.98   
    91. A(C   7,C   6,H  33)          118.47 -0.000230    0.06    118.53   
    92. A(C   6,C   7,H  35)          122.02  0.000211   -0.01    122.01   
    93. A(C   6,C   7,H  34)          121.39 -0.000312    0.11    121.50   
    94. A(H  34,C   7,H  35)          116.59  0.000100   -0.10    116.49   
    95. A(C   9,C   8,H  36)          109.56  0.000001   -0.00    109.55   
    96. A(C   5,C   8,H  36)          109.12 -0.000033    0.01    109.13   
    97. A(H  36,C   8,H  37)          107.78  0.000017   -0.02    107.76   
    98. A(C   5,C   8,C   9)          104.88  0.000020    0.02    104.90   
    99. A(C   5,C   8,H  37)          112.41 -0.000004   -0.00    112.41   
   100. A(C   9,C   8,H  37)          113.03 -0.000003   -0.00    113.02   
   101. A(C   2,C   9,C  10)          112.96 -0.000007    0.00    112.96   
   102. A(C  10,C   9,H  38)          106.70 -0.000038   -0.02    106.68   
   103. A(C   2,C   9,C   8)          102.56 -0.000035    0.02    102.58   
   104. A(C   8,C   9,H  38)          108.57 -0.000003   -0.00    108.57   
   105. A(C   2,C   9,H  38)          108.17  0.000084   -0.01    108.16   
   106. A(C   8,C   9,C  10)          117.54  0.000010    0.01    117.55   
   107. A(C   9,C  10,H  39)          114.22 -0.000030   -0.04    114.19   
   108. A(C  11,C  10,H  39)          119.17  0.000037    0.00    119.17   
   109. A(C   9,C  10,C  11)          126.61 -0.000007    0.03    126.64   
   110. A(H  40,C  11,H  41)          116.23 -0.000021   -0.04    116.18   
   111. A(C  10,C  11,H  41)          122.85  0.000002    0.04    122.90   
   112. A(C  10,C  11,H  40)          120.92  0.000018   -0.00    120.92   
   113. A(C   1,N  13,C  30)          113.18  0.000011    0.04    113.22   
   114. A(C   1,N  13,C  14)          122.48  0.000012   -0.08    122.40   
   115. A(C  14,N  13,C  30)          123.72 -0.000034    0.03    123.75   
   116. A(N  13,C  14,C  15)          115.52  0.000042   -0.02    115.51   
   117. A(H  42,C  14,H  43)          107.92 -0.000012    0.02    107.94   
   118. A(C  15,C  14,H  43)          108.55 -0.000184   -0.06    108.49   
   119. A(N  13,C  14,H  43)          107.21  0.000105   -0.06    107.15   
   120. A(C  15,C  14,H  42)          110.65  0.000051    0.09    110.75   
   121. A(N  13,C  14,H  42)          106.70 -0.000001    0.02    106.72   
   122. A(H  44,C  15,H  45)          106.90 -0.000052    0.05    106.95   
   123. A(C  14,C  15,C  16)          117.07  0.000257    0.05    117.11   
   124. A(C  16,C  15,H  45)          108.90  0.000064   -0.04    108.86   
   125. A(C  14,C  15,H  45)          105.70 -0.000145    0.01    105.71   
   126. A(C  16,C  15,H  44)          108.46 -0.000142   -0.01    108.45   
   127. A(C  14,C  15,H  44)          109.36 -0.000002   -0.05    109.30   
   128. A(C  17,C  16,H  47)          109.19  0.000040   -0.03    109.16   
   129. A(H  46,C  16,H  47)          106.16 -0.000015    0.01    106.17   
   130. A(C  15,C  16,H  47)          107.79 -0.000029   -0.03    107.75   
   131. A(C  17,C  16,H  46)          107.23  0.000118   -0.03    107.21   
   132. A(C  15,C  16,H  46)          110.10  0.000005    0.02    110.12   
   133. A(C  15,C  16,C  17)          115.94 -0.000111    0.06    116.00   
   134. A(C  16,C  17,O  18)          110.07 -0.000412    0.02    110.08   
   135. A(O  18,C  17,H  49)          109.70  0.000066    0.12    109.82   
   136. A(C  16,C  17,H  49)          110.49  0.000105   -0.01    110.49   
   137. A(O  18,C  17,H  48)          109.96  0.000303   -0.11    109.85   
   138. A(C  16,C  17,H  48)          109.50  0.000012   -0.08    109.42   
   139. A(H  48,C  17,H  49)          107.06 -0.000059    0.07    107.13   
   140. A(C  17,O  18,C  19)          115.68  0.000084    0.05    115.74   
   141. A(O  18,C  19,C  20)          111.71 -0.000322    0.09    111.80   
   142. A(C  28,C  19,H  50)          108.26  0.000003   -0.03    108.23   
   143. A(C  20,C  19,H  50)          108.92 -0.000005    0.06    108.97   
   144. A(O  18,C  19,H  50)          109.59  0.000034   -0.01    109.58   
   145. A(C  20,C  19,C  28)          108.99  0.000055   -0.03    108.96   
   146. A(O  18,C  19,C  28)          109.30  0.000242   -0.08    109.22   
   147. A(O  21,C  20,C  22)          111.37  0.000008    0.05    111.42   
   148. A(C  19,C  20,C  22)          109.33 -0.000039   -0.02    109.31   
   149. A(C  19,C  20,O  21)          113.75  0.000000    0.02    113.77   
   150. A(O  21,C  20,H  51)          105.69  0.000044   -0.04    105.65   
   151. A(C  19,C  20,H  51)          108.32 -0.000002   -0.01    108.30   
   152. A(C  22,C  20,H  51)          108.15 -0.000008    0.00    108.15   
   153. A(C  20,O  21,H  52)          113.39  0.000136   -0.01    113.38   
   154. A(O  25,C  22,H  53)          110.19  0.000026    0.01    110.20   
   155. A(C  23,C  22,H  53)          108.11  0.000021   -0.03    108.08   
   156. A(C  20,C  22,H  53)          109.22 -0.000038    0.02    109.24   
   157. A(C  23,C  22,O  25)          106.56 -0.000013    0.00    106.56   
   158. A(C  20,C  22,O  25)          109.31  0.000056   -0.02    109.28   
   159. A(C  20,C  22,C  23)          113.42 -0.000049    0.02    113.44   
   160. A(H  54,C  23,H  55)          107.66 -0.000006   -0.01    107.65   
   161. A(C  22,C  23,H  55)          109.20 -0.000055    0.01    109.21   
   162. A(O  24,C  23,H  54)          107.30  0.000024   -0.02    107.29   
   163. A(C  22,C  23,H  54)          108.15 -0.000052   -0.02    108.13   
   164. A(O  24,C  23,H  55)          111.73  0.000047    0.02    111.75   
   165. A(C  22,C  23,O  24)          112.60  0.000037    0.01    112.62   
   166. A(C  23,O  24,H  56)          108.60  0.000138    0.08    108.68   
   167. A(C  22,O  25,C  26)          114.59  0.000007    0.09    114.68   
   168. A(C  28,C  26,H  57)          109.45  0.000017   -0.02    109.43   
   169. A(O  27,C  26,H  57)          110.38 -0.000020   -0.00    110.38   
   170. A(O  25,C  26,H  57)          109.71 -0.000001    0.02    109.73   
   171. A(O  27,C  26,C  28)          111.53  0.000015   -0.03    111.50   
   172. A(O  25,C  26,C  28)          109.06 -0.000060    0.01    109.07   
   173. A(O  25,C  26,O  27)          106.66  0.000048    0.02    106.68   
   174. A(C  26,O  27,H  58)          107.97 -0.000072    0.03    108.00   
   175. A(O  29,C  28,H  59)          110.43 -0.000003    0.01    110.44   
   176. A(C  26,C  28,H  59)          107.48 -0.000044   -0.00    107.48   
   177. A(C  19,C  28,H  59)          109.19  0.000013    0.00    109.19   
   178. A(C  26,C  28,O  29)          107.50  0.000066   -0.00    107.50   
   179. A(C  19,C  28,O  29)          111.87 -0.000006   -0.02    111.85   
   180. A(C  19,C  28,C  26)          110.26 -0.000029    0.01    110.28   
   181. A(C  28,O  29,H  60)          108.86  0.000079   -0.00    108.86   
   182. A(N  13,C  30,O  31)          125.24  0.000124    0.04    125.28   
   183. A(C   4,C  30,O  31)          126.10 -0.000117   -0.01    126.09   
   184. A(C   4,C  30,N  13)          108.64 -0.000027   -0.04    108.60   
   185. D(C   9,C   2,C   1,O   0)     60.78  0.000022   -0.21     60.57   
   186. D(H   3,C   2,C   1,N  13)    117.27  0.000320   -0.37    116.89   
   187. D(H   3,C   2,C   1,O   0)    -62.57 -0.000047   -0.24    -62.80   
   188. D(C   4,C   2,C   1,N  13)     -2.43  0.000326   -0.30     -2.73   
   189. D(C   4,C   2,C   1,O   0)    177.74 -0.000041   -0.17    177.57   
   190. D(C   5,C   4,C   2,H   3)    123.23 -0.000080    0.36    123.59   
   191. D(H  12,C   4,C   2,H   3)      3.76 -0.000021    0.45      4.21   
   192. D(C   5,C   4,C   2,C   1)   -120.22 -0.000090    0.26   -119.95   
   193. D(H  12,C   4,C   2,C   1)    120.32 -0.000030    0.35    120.67   
   194. D(H  12,C   4,C   2,C   9)   -117.36  0.000015    0.39   -116.97   
   195. D(C   5,C   4,C   2,C   9)      2.11 -0.000045    0.31      2.41   
   196. D(C   6,C   5,C   4,C  30)    -21.78  0.000114   -0.19    -21.97   
   197. D(C   8,C   5,C   4,C  30)   -142.51  0.000046   -0.28   -142.78   
   198. D(C   8,C   5,C   4,C   2)    -25.76  0.000030   -0.21    -25.98   
   199. D(C   6,C   5,C   4,C   2)     94.96  0.000098   -0.13     94.83   
   200. D(C   6,C   5,C   4,H  12)   -143.43  0.000087   -0.16   -143.60   
   201. D(C   8,C   5,C   4,H  12)     95.84  0.000019   -0.25     95.59   
   202. D(C   7,C   6,C   5,C   8)   -127.02  0.000012   -0.00   -127.03   
   203. D(H  33,C   6,C   5,C   4)    -63.70  0.000018   -0.24    -63.94   
   204. D(C   7,C   6,C   5,C   4)    117.95  0.000023   -0.07    117.89   
   205. D(C   7,C   6,C   5,H  32)     -4.64  0.000001   -0.05     -4.69   
   206. D(H  33,C   6,C   5,C   8)     51.32  0.000006   -0.17     51.15   
   207. D(H  35,C   7,C   6,C   5)     -1.53  0.000027   -0.14     -1.67   
   208. D(H  34,C   7,C   6,H  33)      0.21  0.000025   -0.14      0.07   
   209. D(H  34,C   7,C   6,C   5)    178.53  0.000020   -0.31    178.22   
   210. D(H  35,C   7,C   6,H  33)   -179.85  0.000032    0.03   -179.82   
   211. D(H  36,C   8,C   5,C   4)    -76.75 -0.000025    0.04    -76.71   
   212. D(H  36,C   8,C   5,C   6)    160.19 -0.000002   -0.10    160.09   
   213. D(C   9,C   8,C   5,H  32)    156.93 -0.000047   -0.02    156.91   
   214. D(C   9,C   8,C   5,C   6)    -82.51 -0.000006   -0.09    -82.59   
   215. D(C   9,C   8,C   5,C   4)     40.56 -0.000029    0.05     40.61   
   216. D(H  36,C   8,C   5,H  32)     39.62 -0.000043   -0.03     39.59   
   217. D(C  10,C   9,C   8,H  37)     73.12  0.000010    0.10     73.22   
   218. D(C  10,C   9,C   8,C   5)   -164.08  0.000017    0.11   -163.97   
   219. D(C   2,C   9,C   8,H  37)   -162.34 -0.000019    0.12   -162.22   
   220. D(C   2,C   9,C   8,H  36)     77.46 -0.000040    0.15     77.61   
   221. D(C   2,C   9,C   8,C   5)    -39.55 -0.000013    0.13    -39.41   
   222. D(C  10,C   9,C   2,C   4)    150.14  0.000005   -0.24    149.90   
   223. D(C  10,C   9,C   2,C   1)    -94.28 -0.000040   -0.21    -94.49   
   224. D(C   8,C   9,C   2,C   4)     22.63  0.000022   -0.27     22.36   
   225. D(C   8,C   9,C   2,H   3)    -99.80  0.000051   -0.27   -100.07   
   226. D(C  10,C   9,C   8,H  36)    -47.08 -0.000010    0.13    -46.95   
   227. D(C   8,C   9,C   2,C   1)    138.21 -0.000024   -0.23    137.97   
   228. D(C  10,C   9,C   2,H   3)     27.72  0.000035   -0.25     27.47   
   229. D(H  39,C  10,C   9,C   8)    174.62 -0.000025    0.10    174.72   
   230. D(H  39,C  10,C   9,C   2)     55.46  0.000021    0.06     55.52   
   231. D(C  11,C  10,C   9,H  38)    115.88 -0.000048    0.09    115.97   
   232. D(C  11,C  10,C   9,C   8)     -6.23 -0.000019    0.10     -6.13   
   233. D(C  11,C  10,C   9,C   2)   -125.39  0.000027    0.06   -125.33   
   234. D(H  41,C  11,C  10,H  39)    179.31  0.000005   -0.00    179.31   
   235. D(H  41,C  11,C  10,C   9)      0.20 -0.000000   -0.00      0.20   
   236. D(H  40,C  11,C  10,H  39)     -0.33  0.000003   -0.00     -0.33   
   237. D(H  40,C  11,C  10,C   9)   -179.44 -0.000003   -0.00   -179.44   
   238. D(C  30,N  13,C   1,C   2)     -0.74 -0.000037    0.06     -0.67   
   239. D(C  30,N  13,C   1,O   0)    179.10  0.000319   -0.07    179.03   
   240. D(C  14,N  13,C   1,C   2)   -172.00  0.000039    0.19   -171.81   
   241. D(C  14,N  13,C   1,O   0)      7.84  0.000395    0.06      7.90   
   242. D(H  43,C  14,N  13,C   1)     48.72  0.000166   -0.93     47.79   
   243. D(H  42,C  14,N  13,C  30)     -6.20  0.000282   -0.78     -6.98   
   244. D(H  42,C  14,N  13,C   1)    164.14  0.000202   -0.92    163.22   
   245. D(C  15,C  14,N  13,C  30)    117.26  0.000376   -0.66    116.60   
   246. D(C  15,C  14,N  13,C   1)    -72.40  0.000297   -0.80    -73.20   
   247. D(C  16,C  15,C  14,N  13)    -54.15  0.000022   -0.67    -54.83   
   248. D(H  44,C  15,C  14,H  43)    -50.75 -0.000003   -0.57    -51.32   
   249. D(H  44,C  15,C  14,H  42)   -168.99  0.000094   -0.62   -169.61   
   250. D(H  44,C  15,C  14,N  13)     69.66  0.000023   -0.70     68.96   
   251. D(C  16,C  15,C  14,H  43)   -174.56 -0.000004   -0.54   -175.10   
   252. D(C  16,C  15,C  14,H  42)     67.20  0.000093   -0.59     66.61   
   253. D(H  46,C  16,C  15,H  45)   -166.24  0.000077   -0.08   -166.32   
   254. D(H  46,C  16,C  15,H  44)    -50.25 -0.000028   -0.05    -50.30   
   255. D(H  46,C  16,C  15,C  14)     74.01  0.000042   -0.10     73.91   
   256. D(C  17,C  16,C  15,H  45)     71.83 -0.000002   -0.10     71.73   
   257. D(C  17,C  16,C  15,H  44)   -172.19 -0.000107   -0.07   -172.25   
   258. D(C  17,C  16,C  15,C  14)    -47.92 -0.000037   -0.12    -48.04   
   259. D(H  48,C  17,C  16,H  47)    -52.59 -0.000117    0.36    -52.23   
   260. D(H  48,C  17,C  16,H  46)     62.02 -0.000052    0.34     62.36   
   261. D(H  48,C  17,C  16,C  15)   -174.54 -0.000031    0.39   -174.15   
   262. D(O  18,C  17,C  16,H  47)     68.41  0.000005    0.18     68.58   
   263. D(O  18,C  17,C  16,H  46)   -176.98  0.000070    0.16   -176.82   
   264. D(O  18,C  17,C  16,C  15)    -53.54  0.000092    0.20    -53.34   
   265. D(C  19,O  18,C  17,H  49)     47.84  0.000031    0.09     47.93   
   266. D(C  19,O  18,C  17,H  48)    -69.65 -0.000116    0.00    -69.65   
   267. D(C  19,O  18,C  17,C  16)    169.63 -0.000061    0.17    169.80   
   268. D(H  50,C  19,O  18,C  17)      1.02 -0.000245    0.76      1.78   
   269. D(C  28,C  19,O  18,C  17)    119.51 -0.000077    0.67    120.18   
   270. D(C  20,C  19,O  18,C  17)   -119.79 -0.000052    0.64   -119.15   
   271. D(C  22,C  20,C  19,H  50)     64.06  0.000049   -0.10     63.96   
   272. D(C  22,C  20,C  19,C  28)    -53.85  0.000016   -0.09    -53.94   
   273. D(C  22,C  20,C  19,O  18)   -174.74 -0.000118   -0.02   -174.76   
   274. D(O  21,C  20,C  19,H  50)    -61.12  0.000069   -0.16    -61.28   
   275. D(O  21,C  20,C  19,C  28)   -179.04  0.000036   -0.15   -179.19   
   276. D(O  21,C  20,C  19,O  18)     60.08 -0.000098   -0.08     60.00   
   277. D(H  52,O  21,C  20,H  51)    154.45 -0.000083    0.20    154.65   
   278. D(H  52,O  21,C  20,C  22)    -88.33 -0.000064    0.21    -88.12   
   279. D(H  52,O  21,C  20,C  19)     35.76 -0.000109    0.23     35.99   
   280. D(O  25,C  22,C  20,H  51)    -61.48  0.000003    0.07    -61.41   
   281. D(O  25,C  22,C  20,O  21)   -177.19 -0.000049    0.08   -177.11   
   282. D(O  25,C  22,C  20,C  19)     56.26 -0.000026    0.04     56.30   
   283. D(C  23,C  22,C  20,H  51)     57.26 -0.000006    0.07     57.32   
   284. D(C  23,C  22,C  20,O  21)    -58.45 -0.000058    0.08    -58.37   
   285. D(C  23,C  22,C  20,C  19)    175.00 -0.000035    0.04    175.03   
   286. D(H  54,C  23,C  22,H  53)     68.11  0.000019    0.09     68.20   
   287. D(H  54,C  23,C  22,O  25)    -50.32 -0.000015    0.10    -50.22   
   288. D(H  54,C  23,C  22,C  20)   -170.63 -0.000046    0.11   -170.51   
   289. D(O  24,C  23,C  22,H  53)    -50.28  0.000000    0.12    -50.17   
   290. D(O  24,C  23,C  22,O  25)   -168.71 -0.000034    0.12   -168.59   
   291. D(O  24,C  23,C  22,C  20)     70.98 -0.000065    0.14     71.12   
   292. D(H  56,O  24,C  23,H  55)     69.41  0.000133   -0.76     68.65   
   293. D(H  56,O  24,C  23,H  54)   -172.80  0.000167   -0.77   -173.58   
   294. D(H  56,O  24,C  23,C  22)    -53.92  0.000141   -0.80    -54.72   
   295. D(C  26,O  25,C  22,H  53)     57.35 -0.000025    0.05     57.39   
   296. D(C  26,O  25,C  22,C  23)    174.40  0.000006    0.01    174.41   
   297. D(C  26,O  25,C  22,C  20)    -62.68 -0.000029    0.03    -62.65   
   298. D(H  57,C  26,O  25,C  22)    -56.94  0.000022   -0.09    -57.03   
   299. D(C  28,C  26,O  25,C  22)     62.92  0.000006   -0.09     62.83   
   300. D(O  27,C  26,O  25,C  22)   -176.50  0.000018   -0.11   -176.61   
   301. D(H  58,O  27,C  26,H  57)     75.14  0.000136   -0.60     74.53   
   302. D(H  58,O  27,C  26,C  28)    -46.76  0.000118   -0.56    -47.33   
   303. D(H  58,O  27,C  26,O  25)   -165.74  0.000153   -0.57   -166.31   
   304. D(C  19,C  28,C  26,O  25)    -57.57  0.000004    0.08    -57.50   
   305. D(O  29,C  28,C  19,H  50)     55.97  0.000066   -0.01     55.95   
   306. D(O  29,C  28,C  19,C  20)    174.30  0.000093    0.02    174.32   
   307. D(O  29,C  28,C  19,O  18)    -63.36 -0.000116    0.07    -63.29   
   308. D(C  26,C  28,C  19,H  50)    -63.61  0.000006   -0.00    -63.62   
   309. D(C  26,C  28,C  19,C  20)     54.72  0.000033    0.03     54.75   
   310. D(C  19,C  28,C  26,O  27)   -175.11 -0.000026    0.07   -175.05   
   311. D(C  26,C  28,C  19,O  18)    177.06 -0.000177    0.07    177.14   
   312. D(O  29,C  28,C  26,H  57)    -59.75 -0.000040    0.12    -59.63   
   313. D(O  29,C  28,C  26,O  27)     62.69 -0.000044    0.09     62.78   
   314. D(O  29,C  28,C  26,O  25)   -179.77 -0.000014    0.10   -179.67   
   315. D(C  19,C  28,C  26,H  57)     62.45 -0.000022    0.10     62.55   
   316. D(H  60,O  29,C  28,H  59)    -51.86  0.000133   -0.58    -52.45   
   317. D(H  60,O  29,C  28,C  26)   -168.83  0.000149   -0.59   -169.42   
   318. D(H  60,O  29,C  28,C  19)     69.97  0.000144   -0.59     69.39   
   319. D(O  31,C  30,N  13,C   1)   -174.78  0.000551   -0.63   -175.41   
   320. D(C   4,C  30,N  13,C  14)    174.82 -0.000355    0.08    174.90   
   321. D(C   4,C  30,N  13,C   1)      3.69 -0.000282    0.22      3.90   
   322. D(O  31,C  30,C   4,C   5)    -68.62 -0.000375    0.54    -68.07   
   323. D(O  31,C  30,C   4,C   2)    173.49 -0.000377    0.48    173.98   
   324. D(N  13,C  30,C   4,H  12)   -124.47  0.000279   -0.37   -124.84   
   325. D(N  13,C  30,C   4,C   5)    112.94  0.000463   -0.33    112.60   
   326. D(O  31,C  30,N  13,C  14)     -3.64  0.000479   -0.77     -4.41   
   327. D(N  13,C  30,C   4,C   2)     -4.95  0.000461   -0.39     -5.35   
    ----------------------------------------------------------------------------

Geometry step timings:
Preparation and reading OPT file:      0.003 s ( 8.569 %)
Internal coordinates            :      0.000 s ( 0.209 %)
B/P matrices and projection     :      0.011 s (38.313 %)
Hessian update/contruction      :      0.004 s (11.879 %)
Making the step                 :      0.007 s (24.373 %)
Converting the step to Cartesian:      0.001 s ( 3.310 %)
Storing new data                :      0.000 s ( 0.912 %)
Checking convergence            :      0.000 s ( 0.176 %)
Final printing                  :      0.004 s (12.244 %)
Total time                      :      0.030 s

Time for energy+gradient        :    550.013 s
Time for complete geometry iter :    550.114 s

         *************************************************************
         *                GEOMETRY OPTIMIZATION CYCLE   8            *
         *************************************************************
---------------------------------
CARTESIAN COORDINATES (ANGSTROEM)
---------------------------------
  O     -2.732529    2.676124    1.783336
  C     -2.524512    1.518076    1.603800
  C     -3.539358    0.396007    1.638496
  H     -3.946911    0.351685    2.641708
  C     -2.735584   -0.862663    1.279593
  C     -3.374111   -1.450931   -0.016817
  C     -2.715661   -1.023096   -1.305868
  C     -2.131935   -1.845826   -2.155202
  C     -4.821852   -0.925234    0.086477
  C     -4.682803    0.515543    0.597584
  C     -5.915673    1.180184    1.152534
  C     -7.141739    0.694656    1.146628
  H     -2.772589   -1.611557    2.060751
  N     -1.279952    0.980266    1.330085
  C     -0.049314    1.772141    1.398579
  C      0.151715    2.774712    0.261093
  C      0.094572    2.227140   -1.169486
  C      0.918013    0.977715   -1.438384
  O      2.250567    1.181505   -1.036964
  C      3.063366    0.038695   -1.022902
  C      3.603347   -0.255543    0.374331
  O      2.602432   -0.481424    1.331393
  C      4.586367   -1.434584    0.301229
  C      5.275810   -1.732747    1.628753
  O      4.410543   -2.292060    2.568405
  O      5.604053   -1.133873   -0.620068
  C      5.169933   -0.952829   -1.922214
  O      6.294796   -0.746245   -2.688718
  C      4.233954    0.244896   -1.971883
  O      3.809290    0.393332   -3.300176
  C     -1.300200   -0.387614    1.183865
  O     -0.338070   -1.079499    1.021649
  H     -3.348736   -2.532291    0.026932
  H     -2.756799    0.027011   -1.551338
  H     -1.701524   -1.491463   -3.074546
  H     -2.061713   -2.903479   -1.968457
  H     -5.365159   -1.519314    0.816172
  H     -5.353761   -0.991395   -0.855451
  H     -4.332350    1.141251   -0.220763
  H     -5.738626    2.155269    1.577186
  H     -7.959782    1.254839    1.562607
  H     -7.387770   -0.265573    0.729263
  H      0.766937    1.072439    1.438749
  H     -0.069747    2.314639    2.334977
  H     -0.576679    3.571789    0.352414
  H      1.127877    3.217368    0.428648
  H     -0.933249    1.999524   -1.442240
  H      0.417544    3.018357   -1.840186
  H      0.883635    0.743365   -2.500513
  H      0.501962    0.129712   -0.911525
  H      2.491156   -0.820352   -1.369374
  H      4.146698    0.616151    0.719730
  H      1.846601   -0.944988    0.985382
  H      4.049559   -2.331215   -0.010180
  H      6.060526   -2.453109    1.445897
  H      5.743178   -0.823254    2.001884
  H      3.660284   -1.718956    2.669901
  H      4.637742   -1.843987   -2.260499
  H      6.016955   -0.411265   -3.533325
  H      4.801107    1.115486   -1.655377
  H      3.359673    1.223806   -3.387268

----------------------------
CARTESIAN COORDINATES (A.U.)
----------------------------
  NO LB      ZA    FRAG     MASS         X           Y           Z
   0 O     8.0000    0    15.999   -5.163732    5.057142    3.370017
   1 C     6.0000    0    12.011   -4.770636    2.868749    3.030743
   2 C     6.0000    0    12.011   -6.688418    0.748344    3.096308
   3 H     1.0000    0     1.008   -7.458581    0.664588    4.992105
   4 C     6.0000    0    12.011   -5.169504   -1.630198    2.418081
   5 C     6.0000    0    12.011   -6.376146   -2.741863   -0.031779
   6 C     6.0000    0    12.011   -5.131855   -1.933371   -2.467732
   7 C     6.0000    0    12.011   -4.028772   -3.488106   -4.072741
   8 C     6.0000    0    12.011   -9.111979   -1.748440    0.163417
   9 C     6.0000    0    12.011   -8.849215    0.974235    1.129270
  10 C     6.0000    0    12.011  -11.179001    2.230225    2.177974
  11 C     6.0000    0    12.011  -13.495932    1.312710    2.166813
  12 H     1.0000    0     1.008   -5.239434   -3.045402    3.894255
  13 N     7.0000    0    14.007   -2.418759    1.852435    2.513496
  14 C     6.0000    0    12.011   -0.093189    3.348862    2.642932
  15 C     6.0000    0    12.011    0.286701    5.243446    0.493395
  16 C     6.0000    0    12.011    0.178715    4.208685   -2.210009
  17 C     6.0000    0    12.011    1.734792    1.847614   -2.718152
  18 O     8.0000    0    15.999    4.252956    2.232720   -1.959578
  19 C     6.0000    0    12.011    5.788924    0.073124   -1.933005
  20 C     6.0000    0    12.011    6.809339   -0.482906    0.707383
  21 O     8.0000    0    15.999    4.917883   -0.909760    2.515968
  22 C     6.0000    0    12.011    8.666978   -2.710972    0.569240
  23 C     6.0000    0    12.011    9.969835   -3.274417    3.077898
  24 O     8.0000    0    15.999    8.334718   -4.331366    4.853582
  25 O     8.0000    0    15.999   10.590126   -2.142710   -1.171759
  26 C     6.0000    0    12.011    9.769758   -1.800586   -3.632458
  27 O     8.0000    0    15.999   11.895440   -1.410200   -5.080940
  28 C     6.0000    0    12.011    8.001013    0.462787   -3.726318
  29 O     8.0000    0    15.999    7.198515    0.743290   -6.236430
  30 C     6.0000    0    12.011   -2.457021   -0.732484    2.237181
  31 O     8.0000    0    15.999   -0.638860   -2.039957    1.930637
  32 H     1.0000    0     1.008   -6.328195   -4.785337    0.050894
  33 H     1.0000    0     1.008   -5.209595    0.051043   -2.931604
  34 H     1.0000    0     1.008   -3.215415   -2.818457   -5.810050
  35 H     1.0000    0     1.008   -3.896074   -5.486781   -3.719845
  36 H     1.0000    0     1.008  -10.138681   -2.871087    1.542341
  37 H     1.0000    0     1.008  -10.117142   -1.873464   -1.616568
  38 H     1.0000    0     1.008   -8.186955    2.156652   -0.417181
  39 H     1.0000    0     1.008  -10.844432    4.072868    2.980450
  40 H     1.0000    0     1.008  -15.041808    2.371302    2.952900
  41 H     1.0000    0     1.008  -13.960861   -0.501861    1.378107
  42 H     1.0000    0     1.008    1.449300    2.026616    2.718841
  43 H     1.0000    0     1.008   -0.131802    4.374034    4.412468
  44 H     1.0000    0     1.008   -1.089766    6.749703    0.665965
  45 H     1.0000    0     1.008    2.131378    6.079945    0.810027
  46 H     1.0000    0     1.008   -1.763586    3.778552   -2.725439
  47 H     1.0000    0     1.008    0.789045    5.703867   -3.477448
  48 H     1.0000    0     1.008    1.669828    1.404756   -4.725285
  49 H     1.0000    0     1.008    0.948571    0.245121   -1.722533
  50 H     1.0000    0     1.008    4.707602   -1.550241   -2.587741
  51 H     1.0000    0     1.008    7.836124    1.164356    1.360093
  52 H     1.0000    0     1.008    3.489569   -1.785769    1.862102
  53 H     1.0000    0     1.008    7.652557   -4.405358   -0.019237
  54 H     1.0000    0     1.008   11.452734   -4.635704    2.732350
  55 H     1.0000    0     1.008   10.853034   -1.555724    3.783013
  56 H     1.0000    0     1.008    6.916935   -3.248357    5.045381
  57 H     1.0000    0     1.008    8.764063   -3.484630   -4.271724
  58 H     1.0000    0     1.008   11.370398   -0.777177   -6.677016
  59 H     1.0000    0     1.008    9.072776    2.107962   -3.128210
  60 H     1.0000    0     1.008    6.348862    2.312659   -6.401009

--------------------------------
INTERNAL COORDINATES (ANGSTROEM)
--------------------------------
 O      0   0   0     0.000000000000     0.00000000     0.00000000
 C      1   0   0     1.190201312397     0.00000000     0.00000000
 C      2   1   0     1.513326983821   126.92467978     0.00000000
 H      3   2   1     1.083742797903   107.68209568   297.19078424
 C      3   2   1     1.535941069001   104.55542426   177.56079215
 C      5   3   2     1.560274279147   106.79566342   240.07045768
 C      6   5   3     1.509387805948   115.10008988    94.82953517
 C      7   6   5     1.318707823420   124.49294935   117.87794853
 C      6   5   3     1.543690283636   101.52589534   334.01744289
 C      9   6   5     1.535058813525   104.88958468    40.60434528
 C     10   9   6     1.506547573380   117.55454459   196.02795655
 C     11  10   9     1.318716141110   126.63866591   353.87626825
 H      5   3   2     1.082782856162   112.35351767   120.67586567
 N      2   1   3     1.383144071684   124.43298093   180.32315794
 C     14   2   1     1.465001404631   122.44108898     7.89055783
 C     15  14   2     1.529521468796   115.46390287   286.78754070
 C     16  15  14     1.532859531896   117.06575895   305.21986063
 C     17  16  15     1.520336368374   116.00460461   311.99326267
 O     18  17  16     1.406545345019   110.09513874   306.66983525
 C     19  18  17     1.402445495218   115.71335695   169.78764675
 C     20  19  18     1.526569952171   111.79218325   240.86319314
 O     21  20  19     1.403146732222   113.76586134    59.99115593
 C     21  20  19     1.536818741610   109.30472197   185.23686069
 C     23  21  20     1.525304534854   113.43397453   175.03633311
 O     24  23  21     1.394440257296   112.60729718    71.11776283
 O     23  21  20     1.405311444692   109.28284666    56.29778340
 C     26  23  21     1.384493340785   114.67686072   297.34808181
 O     27  26  23     1.376778955474   106.68196367   183.38677925
 C     27  26  23     1.520878385678   109.06656834    62.83299768
 O     29  27  26     1.402404211990   107.49619427   180.32743695
 C     14   2   1     1.375821886053   113.22712043   179.03487960
 O     31  14   2     1.196123562296   125.28725914   184.58179165
 H      6   5   3     1.082541830108   109.47803662   216.54997854
 H      7   6   5     1.079200115511   116.96406306   296.06326024
 H      8   7   6     1.075183729395   121.48581746   178.23624670
 H      8   7   6     1.076305822508   122.01964823   358.33707334
 H      9   6   5     1.086539647118   109.12887945   283.28327958
 H      9   6   5     1.083758168377   112.41723295   163.79972424
 H     10   9   6     1.088126467332   108.57115758    74.91696784
 H     11  10   9     1.078176516156   114.18527073   174.72785597
 H     12  11  10     1.075191615279   120.91871784   180.56322419
 H     12  11  10     1.075530357030   122.89702113     0.20182770
 H     15  14   2     1.075853608656   106.71014745   163.23202965
 H     15  14   2     1.082387662186   107.18784651    47.79867979
 H     16  15  14     1.083618884912   109.33741279    68.98673732
 H     16  15  14     1.084854506185   105.71544858   183.81341101
 H     17  16  15     1.087483465662   110.12558936    73.92953459
 H     17  16  15     1.086357790755   107.75416388   189.32526115
 H     18  17  16     1.088219012796   109.42027288   185.83902580
 H     18  17  16     1.081567194474   110.47729576    68.13364857
 H     20  19  18     1.088774739044   109.58193162     1.78184959
 H     21  20  19     1.083688649702   108.30257850   302.85515320
 H     22  21  20     0.951785317525   113.38553338    35.98538755
 H     23  21  20     1.090451691448   109.24029290   295.66797394
 H     24  23  21     1.080804070386   108.13248087   189.48460757
 H     24  23  21     1.088502486266   109.21356623   306.35239435
 H     25  24  23     0.949545597475   108.67629074   305.28575569
 H     27  26  23     1.091707334673   109.72759960   302.96999396
 H     28  27  26     0.950141338690   107.99205872   193.69160688
 H     29  27  26     1.086168953184   107.47885165    61.43224070
 H     30  29  27     0.948381807009   108.85796380   190.57912233

---------------------------
INTERNAL COORDINATES (A.U.)
---------------------------
 O      0   0   0     0.000000000000     0.00000000     0.00000000
 C      1   0   0     2.249154524664     0.00000000     0.00000000
 C      2   1   0     2.859773550495   126.92467978     0.00000000
 H      3   2   1     2.047977087646   107.68209568   297.19078424
 C      3   2   1     2.902507978254   104.55542426   177.56079215
 C      5   3   2     2.948491081390   106.79566342   240.07045768
 C      6   5   3     2.852329583121   115.10008988    94.82953517
 C      7   6   5     2.491996636923   124.49294935   117.87794853
 C      6   5   3     2.917151871667   101.52589534   334.01744289
 C      9   6   5     2.900840757024   104.88958468    40.60434528
 C     10   9   6     2.846962321411   117.55454459   196.02795655
 C     11  10   9     2.492012355079   126.63866591   353.87626825
 H      5   3   2     2.046163060652   112.35351767   120.67586567
 N      2   1   3     2.613763499239   124.43298093   180.32315794
 C     14   2   1     2.768451440563   122.44108898     7.89055783
 C     15  14   2     2.890376691978   115.46390287   286.78754070
 C     16  15  14     2.896684717054   117.06575895   305.21986063
 C     17  16  15     2.873019367667   116.00460461   311.99326267
 O     18  17  16     2.657985497028   110.09513874   306.66983525
 C     19  18  17     2.650237903714   115.71335695   169.78764675
 C     20  19  18     2.884799133876   111.79218325   240.86319314
 O     21  20  19     2.651563049606   113.76586134    59.99115593
 C     21  20  19     2.904166539121   109.30472197   185.23686069
 C     23  21  20     2.882407841702   113.43397453   175.03633311
 O     24  23  21     2.635110196404   112.60729718    71.11776283
 O     23  21  20     2.655653763332   109.28284666    56.29778340
 C     26  23  21     2.616313248322   114.67686072   297.34808181
 O     27  26  23     2.601735172792   106.68196367   183.38677925
 C     27  26  23     2.874043631931   109.06656834    62.83299768
 O     29  27  26     2.650159889718   107.49619427   180.32743695
 C     14   2   1     2.599926573695   113.22712043   179.03487960
 O     31  14   2     2.260345955070   125.28725914   184.58179165
 H      6   5   3     2.045707587418   109.47803662   216.54997854
 H      7   6   5     2.039392662012   116.96406306   296.06326024
 H      8   7   6     2.031802792204   121.48581746   178.23624670
 H      8   7   6     2.033923240885   122.01964823   358.33707334
 H      9   6   5     2.053262366701   109.12887945   283.28327958
 H      9   6   5     2.048006133632   112.41723295   163.79972424
 H     10   9   6     2.056261022329   108.57115758    74.91696784
 H     11  10   9     2.037458339560   114.18527073   174.72785597
 H     12  11  10     2.031817694366   120.91871784   180.56322419
 H     12  11  10     2.032457823505   122.89702113     0.20182770
 H     15  14   2     2.033068680551   106.71014745   163.23202965
 H     15  14   2     2.045416252266   107.18784651    47.79867979
 H     16  15  14     2.047742926028   109.33741279    68.98673732
 H     16  15  14     2.050077911840   105.71544858   183.81341101
 H     17  16  15     2.055045925268   110.12558936    73.92953459
 H     17  16  15     2.052918707979   107.75416388   189.32526115
 H     18  17  16     2.056435907911   109.42027288   185.83902580
 H     18  17  16     2.043865792990   110.47729576    68.13364857
 H     20  19  18     2.057486078326   109.58193162     1.78184959
 H     21  20  19     2.047874762375   108.30257850   302.85515320
 H     22  21  20     1.798613588409   113.38553338    35.98538755
 H     23  21  20     2.060655059107   109.24029290   295.66797394
 H     24  23  21     2.042423697457   108.13248087   189.48460757
 H     24  23  21     2.056971595136   109.21356623   306.35239435
 H     25  24  23     1.794381130899   108.67629074   305.28575569
 H     27  26  23     2.063027880926   109.72759960   302.96999396
 H     28  27  26     1.795506918641   107.99205872   193.69160688
 H     29  27  26     2.052561856685   107.47885165    61.43224070
 H     30  29  27     1.792181885640   108.85796380   190.57912233

------------------------------------------------------------------------------
                   ___                                                        
                  /   \      - P O W E R E D   B Y -                         
                 /     \                                                     
                 |  |  |   _    _      __       _____    __    __             
                 |  |  |  | |  | |    /  \     |  _  \  |  |  /  |          
                  \  \/   | |  | |   /    \    | | | |  |  | /  /          
                 / \  \   | |__| |  /  /\  \   | |_| |  |  |/  /          
                |  |  |   |  __  | /  /__\  \  |    /   |      \           
                |  |  |   | |  | | |   __   |  |    \   |  |\   \          
                \     /   | |  | | |  |  |  |  | |\  \  |  | \   \       
                 \___/    |_|  |_| |__|  |__|  |_| \__\ |__|  \__/        
                                                                              
                      - O R C A' S   B I G   F R I E N D -                    
                                      &                                       
                       - I N T E G R A L  F E E D E R -                       
                                                                              
 v1 FN, 2020, v2 2021, v3 2022-2024                                           
------------------------------------------------------------------------------


----------------------
SHARK INTEGRAL PACKAGE
----------------------

Number of atoms                             ...     61
Number of basis functions                   ...    482
Number of shells                            ...    242
Maximum angular momentum                    ...      2
Integral batch strategy                     ... SHARK/LIBINT Hybrid
RI-J (if used) integral strategy            ... SPLIT-RIJ (Revised 2003 algorithm where possible)
Printlevel                                  ...      1
Contraction scheme used                     ... SEGMENTED contraction
Prescreening option                         ... SCHWARTZ
   Thresh                                   ... 2.500e-11
   Tcut                                     ... 2.500e-12
   Tpresel                                  ... 2.500e-12 
Coulomb Range Separation                    ... NOT USED
Exchange Range Separation                   ... NOT USED
Multipole approximations                    ... NOT USED
Finite Nucleus Model                        ... NOT USED
CABS basis                                  ... NOT available
Auxiliary Coulomb fitting basis             ... NOT available
Auxiliary J/K fitting basis                 ... NOT available
Auxiliary Correlation fitting basis         ... NOT available
Auxiliary 'external' fitting basis          ... NOT available

Checking pre-screening integrals            ... done (  0.0 sec) Dimension = 242
Check shell pair data                       ... done (  0.0 sec)
Shell pair information
Shell pair cut-off parameter TPreSel        ...   2.5e-12
Total number of shell pairs                 ...     29403
Shell pairs after pre-screening             ...     18342
Total number of primitive shell pairs       ...    165748
Primitive shell pairs kept                  ...     54533
          la=0 lb=0:   6980 shell pairs
          la=1 lb=0:   6141 shell pairs
          la=1 lb=1:   1370 shell pairs
          la=2 lb=0:   2476 shell pairs
          la=2 lb=1:   1142 shell pairs
          la=2 lb=2:    233 shell pairs

Calculating one electron integrals          ... done (  0.2 sec)
Calculating Nuclear repulsion               ... done (  0.0 sec) ENN=   3226.192077928372 Eh

Diagonalization of the overlap matrix:
Smallest eigenvalue                        ... 1.166e-03
Time for diagonalization                   ...    0.022 sec
Threshold for overlap eigenvalues          ... 1.000e-07
Number of eigenvalues below threshold      ... 0
Time for construction of square roots      ...    0.011 sec
Total time needed                          ...    0.034 sec

-------------------
DFT GRID GENERATION
-------------------

General Integration Accuracy     IntAcc      ... 4.388
Radial Grid Type                 RadialGrid  ... OptM3 with GC (2021)
Angular Grid (max. ang.)         AngularGrid ... 4 (Lebedev-302)
Angular grid pruning method      GridPruning ... 4 (adaptive)
Weight generation scheme         WeightScheme... mBecke (2022)
Basis function cutoff            BFCut       ... 1.0000e-11
Integration weight cutoff        WCut        ... 1.0000e-14
Partially contracted basis set               ... off
Rotationally invariant grid construction     ... off
Angular grids for H and He will be reduced by one unit

Total number of grid points                  ...   276076
Total number of batches                      ...     4343
Average number of points per batch           ...       63
Average number of grid points per atom       ...     4526
Initializing property integral containers    ... done (  0.0 sec)

SHARK setup successfully completed in   4.6 seconds

Maximum memory used throughout the entire STARTUP-calculation: 121.8 MB
Occupation numbers will be reassigned to an Aufbau configuration
             **** ENERGY FILE WAS UPDATED (monomer_hf_opt.en.tmp) ****
Finished Guess after   0.2 sec
Maximum memory used throughout the entire GUESS-calculation: 46.3 MB
----------------------------------------D-I-I-S--------------------------------------------
Iteration    Energy (Eh)           Delta-E    RMSDP     MaxDP     DIISErr   Damp  Time(sec)
-------------------------------------------------------------------------------------------
               ***  Starting incremental Fock matrix formation  ***
    1    -1466.5839555882016612     0.00e+00  3.84e-05  1.78e-03  1.05e-02  0.700  51.6
    2    -1466.5844424712554428    -4.87e-04  3.51e-05  1.60e-03  8.73e-03  0.700  37.2
                               ***Turning on AO-DIIS***
    3    -1466.5848525246151439    -4.10e-04  3.61e-05  1.61e-03  7.08e-03  0.700  36.8
    4    -1466.5851806769665018    -3.28e-04  1.01e-04  4.29e-03  5.35e-03  0.000  36.7
                              *** Initializing SOSCF ***
---------------------------------------S-O-S-C-F--------------------------------------
Iteration    Energy (Eh)           Delta-E    RMSDP     MaxDP     MaxGrad    Time(sec)
--------------------------------------------------------------------------------------
    5    -1466.5861921534483372    -1.01e-03  1.37e-05  4.73e-04  6.47e-04    39.4
               *** Restarting incremental Fock matrix formation ***
    6    -1466.5861999445437505    -7.79e-06  7.16e-06  2.47e-04  1.49e-04    51.6
    7    -1466.5862018661932780    -1.92e-06  6.20e-06  2.45e-04  7.72e-05    31.3
    8    -1466.5862025235269357    -6.57e-07  1.03e-06  4.42e-05  1.83e-05    30.6
    9    -1466.5862025425562933    -1.90e-08  5.97e-07  2.83e-05  1.04e-05    25.6
   10    -1466.5862025470801200    -4.52e-09  2.34e-07  1.65e-05  5.08e-06    23.8
                 **** Energy Check signals convergence ****

               *****************************************************
               *                     SUCCESS                       *
               *           SCF CONVERGED AFTER  10 CYCLES          *
               *****************************************************

             **** ENERGY FILE WAS UPDATED (monomer_hf_opt.en.tmp) ****

----------------
TOTAL SCF ENERGY
----------------

Total Energy       :      -1466.58620254708012 Eh          -39907.83945 eV

Components:
Nuclear Repulsion  :       3226.19207792837233 Eh           87789.14955 eV
Electronic Energy  :      -4692.77828047545245 Eh         -127696.98900 eV
One Electron Energy:      -8427.13196729011906 Eh         -229313.91892 eV
Two Electron Energy:       3734.35368681466662 Eh          101616.92992 eV

Virial components:
Potential Energy   :      -2933.26780014144606 Eh          -79818.27472 eV
Kinetic Energy     :       1466.68159759436571 Eh           39910.43528 eV
Virial Ratio       :          1.99993495858444

---------------
SCF CONVERGENCE
---------------

  Last Energy change         ...    4.5238e-09  Tolerance :   1.0000e-08
  Last MAX-Density change    ...    1.6495e-05  Tolerance :   1.0000e-07
  Last RMS-Density change    ...    2.3446e-07  Tolerance :   5.0000e-09
  Last DIIS Error            ...    6.4722e-04  Tolerance :   5.0000e-07
  Last Orbital Gradient      ...    5.0825e-06  Tolerance :   1.0000e-05
  Last Orbital Rotation      ...    1.6945e-05  Tolerance :   1.0000e-05


Total SCF time: 0 days 0 hours 6 min 4 sec 
Finished LeanSCF after 364.9 sec

Maximum memory used throughout the entire LEANSCF-calculation: 48.7 MB

-------------------------   --------------------
FINAL SINGLE POINT ENERGY     -1466.586202547080
-------------------------   --------------------

------------------------------------------------------------------------------
                         ORCA SCF GRADIENT CALCULATION
------------------------------------------------------------------------------

Nuc. rep. gradient        (SHARK) ... done (  0.0 sec)
HCore & Overlap gradient  (SHARK) ... done (  3.0 sec)
Two-electron gradient     (SHARK) ... done (179.6 sec)

------------------
CARTESIAN GRADIENT
------------------

   1   O   :   -0.000031590   -0.000666178   -0.000346019
   2   C   :    0.000160534    0.001077560    0.000686559
   3   C   :   -0.000004570   -0.000116749    0.000074766
   4   H   :   -0.000059144    0.000020558   -0.000083854
   5   C   :   -0.000028856   -0.000071746   -0.000277727
   6   C   :   -0.000095833    0.000110066    0.000100253
   7   C   :    0.000372200   -0.000293139    0.000025795
   8   C   :    0.000130279    0.000042353    0.000084828
   9   C   :   -0.000148550   -0.000132136    0.000021027
  10   C   :    0.000099055    0.000197637   -0.000077859
  11   C   :   -0.000350230    0.000034596    0.000079924
  12   C   :    0.000327537    0.000146765   -0.000010178
  13   H   :    0.000056716    0.000042910   -0.000024124
  14   N   :   -0.000363495    0.000199103   -0.000520351
  15   C   :    0.000038204   -0.000580788    0.000267379
  16   C   :   -0.000154762    0.000314079    0.000258531
  17   C   :   -0.000112528   -0.000214401   -0.000142154
  18   C   :    0.000895657    0.000393781   -0.000226466
  19   O   :   -0.000373362   -0.000402987    0.000206840
  20   C   :   -0.000074581    0.000169692   -0.000408179
  21   C   :   -0.000138386    0.000258834    0.000428461
  22   O   :    0.000173703   -0.000195131   -0.000392671
  23   C   :    0.000351434    0.000009673   -0.000252736
  24   C   :   -0.000146711   -0.000316700    0.000427340
  25   O   :    0.000424901    0.000365341   -0.000260769
  26   O   :   -0.000634135    0.000106061    0.000021724
  27   C   :    0.000823723   -0.000103420    0.000083918
  28   O   :   -0.000396281   -0.000319821    0.000266793
  29   C   :    0.000000111    0.000009632   -0.000192262
  30   O   :   -0.000073502   -0.000232920    0.000264677
  31   C   :    0.000979751   -0.000147998    0.000338323
  32   O   :   -0.000338242    0.000177960   -0.000289987
  33   H   :   -0.000022382    0.000013275    0.000044821
  34   H   :    0.000005716    0.000141102   -0.000113627
  35   H   :   -0.000112443    0.000009148    0.000067382
  36   H   :    0.000050176   -0.000045507   -0.000140361
  37   H   :   -0.000044612   -0.000018934   -0.000030517
  38   H   :   -0.000021884   -0.000014393    0.000028769
  39   H   :   -0.000103246   -0.000029648    0.000043328
  40   H   :    0.000069397   -0.000023569   -0.000017278
  41   H   :   -0.000045502   -0.000033278   -0.000005947
  42   H   :   -0.000121578   -0.000072611   -0.000006846
  43   H   :   -0.000103236    0.000061306   -0.000046859
  44   H   :    0.000117054    0.000059192   -0.000095783
  45   H   :   -0.000026961    0.000023219   -0.000125222
  46   H   :    0.000005441   -0.000094788    0.000067193
  47   H   :   -0.000018599    0.000073869   -0.000002126
  48   H   :    0.000046357    0.000002801    0.000064080
  49   H   :   -0.000170853    0.000039016    0.000098963
  50   H   :   -0.000373213   -0.000506966    0.000213470
  51   H   :   -0.000052592    0.000038577    0.000089069
  52   H   :   -0.000078855    0.000001225   -0.000033188
  53   H   :   -0.000061957    0.000035830    0.000119469
  54   H   :   -0.000001905    0.000008502    0.000021890
  55   H   :   -0.000048625   -0.000015733   -0.000079708
  56   H   :    0.000083402    0.000000762   -0.000024605
  57   H   :   -0.000271882   -0.000092047    0.000087436
  58   H   :    0.000055282   -0.000021499    0.000024940
  59   H   :   -0.000070170    0.000272389   -0.000232745
  60   H   :   -0.000043055   -0.000009488    0.000009352
  61   H   :    0.000051680    0.000315760   -0.000157150

Difference to translation invariance:
           :   -0.0000000000    0.0000000000   -0.0000000000

Difference to rotation invariance:
           :   -0.0000007105   -0.0000012263    0.0000046035

Norm of the Cartesian gradient     ...    0.0033253728
RMS gradient                       ...    0.0002458186
MAX gradient                       ...    0.0010775595

-------
TIMINGS
-------

Total SCF gradient time     ....      182.590 sec

Densities                   ....       0.005 sec  (  0.0%)
One electron gradient       ....       2.987 sec  (  1.6%)
Two electron gradient       ....     179.597 sec  ( 98.4%)

Maximum memory used throughout the entire SCFGRAD-calculation: 105.9 MB
------------------------------------------------------------------------------
                         ORCA GEOMETRY RELAXATION STEP
------------------------------------------------------------------------------

Reading the OPT-File                    .... done
Getting information on internals        .... done
Copying old internal coords+grads       .... done
Making the new internal coordinates     .... (2022 redundants) done
Validating the new internal coordinates .... (2022 redundants) done
Calculating the B-matrix                .... done
Calculating the G,G- and P matrices     .... done
Transforming gradient to internals      .... done
Projecting the internal gradient        .... done
Number of atoms                         ....  61
Number of internal coordinates          .... 327
Current Energy                          .... -1466.586202547 Eh
Current gradient norm                   ....     0.003325373 Eh/bohr
Maximum allowed component of the step   ....  0.300
Current trust radius                    ....  0.300
Updating the Hessian (BFGS)             .... done
Forming the augmented Hessian           .... done
Diagonalizing the augmented Hessian     .... done
Last element of RFO vector              ....  0.992392963
Lowest eigenvalues of augmented Hessian:
 -0.000056484  0.000923888  0.005894368  0.011794709  0.012402780
Length of the computed step             ....  0.124054234
The final length of the internal step   ....  0.124054234
Converting the step to Cartesian space:
 Initial RMS(Int)=    0.0068602148
Transforming coordinates:
 Iter   0:  RMS(Cart)=    0.0427575960 RMS(Int)=    0.0069556723
done
Storing new coordinates                 .... done
The predicted energy change is          ....    -0.000028677
Previously predicted energy change      ....    -0.000047007
Actually observed energy change         ....    -0.000052016
Ratio of predicted to observed change   ....     1.106557009
New trust radius                        ....     0.450000000

                                .--------------------.
          ----------------------|Geometry convergence|-------------------------
          Item                value                   Tolerance       Converged
          ---------------------------------------------------------------------
          Energy change      -0.0000520156            0.0000050000      NO
          RMS gradient        0.0001288875            0.0001000000      NO
          MAX gradient        0.0006948526            0.0003000000      NO
          RMS step            0.0068602148            0.0020000000      NO
          MAX step            0.1034255376            0.0040000000      NO
          ........................................................
          Max(Bonds)      0.0547      Max(Angles)    0.14
          Max(Dihed)        0.84      Max(Improp)    0.00
          ---------------------------------------------------------------------

The optimization has not yet converged - more geometry cycles are needed


    ---------------------------------------------------------------------------
                         Redundant Internal Coordinates
                            (Angstroem and degrees)

        Definition                    Value    dE/dq     Step     New-Value
    ----------------------------------------------------------------------------
     1. B(C   1,O   0)                1.1902 -0.000695  0.0004    1.1906   
     2. B(C   2,C   1)                1.5133  0.000145 -0.0003    1.5130   
     3. B(H   3,C   2)                1.0837 -0.000056  0.0002    1.0839   
     4. B(C   4,C   2)                1.5359  0.000264 -0.0002    1.5357   
     5. B(C   5,C   4)                1.5603 -0.000039 -0.0001    1.5602   
     6. B(C   6,C   5)                1.5094  0.000161 -0.0001    1.5092   
     7. B(C   7,C   6)                1.3187  0.000046  0.0001    1.3188   
     8. B(C   8,C   5)                1.5437  0.000223 -0.0002    1.5435   
     9. B(C   9,C   8)                1.5351  0.000162 -0.0003    1.5348   
    10. B(C   9,C   2)                1.5509  0.000116 -0.0004    1.5505   
    11. B(C  10,C   9)                1.5065  0.000136 -0.0002    1.5063   
    12. B(C  11,C  10)                1.3187 -0.000164  0.0001    1.3188   
    13. B(H  12,C   4)                1.0828 -0.000049  0.0001    1.0828   
    14. B(N  13,C   1)                1.3831 -0.000010 -0.0001    1.3830   
    15. B(C  14,N  13)                1.4650 -0.000385  0.0003    1.4653   
    16. B(C  15,C  14)                1.5295 -0.000207 -0.0001    1.5294   
    17. B(C  16,C  15)                1.5329  0.000038 -0.0001    1.5327   
    18. B(C  17,C  16)                1.5203  0.000059  0.0000    1.5204   
    19. B(O  18,C  17)                1.4065 -0.000439  0.0007    1.4072   
    20. B(C  19,O  18)                1.4024 -0.000282  0.0003    1.4027   
    21. B(C  20,C  19)                1.5266  0.000115 -0.0003    1.5263   
    22. B(O  21,C  20)                1.4031 -0.000270  0.0004    1.4036   
    23. B(C  22,C  20)                1.5368  0.000019 -0.0003    1.5365   
    24. B(C  23,C  22)                1.5253  0.000122 -0.0002    1.5251   
    25. B(O  24,C  23)                1.3944 -0.000337  0.0004    1.3948   
    26. B(O  25,C  22)                1.4053 -0.000311  0.0004    1.4057   
    27. B(C  26,O  25)                1.3845 -0.000181  0.0003    1.3848   
    28. B(O  27,C  26)                1.3768 -0.000354  0.0005    1.3772   
    29. B(C  28,C  26)                1.5209  0.000197 -0.0001    1.5207   
    30. B(C  28,C  19)                1.5210  0.000050 -0.0001    1.5209   
    31. B(O  29,C  28)                1.4024 -0.000071 -0.0000    1.4024   
    32. B(C  30,N  13)                1.3758 -0.000044  0.0003    1.3761   
    33. B(C  30,C   4)                1.5150  0.000151 -0.0002    1.5148   
    34. B(O  31,C  30)                1.1961 -0.000375  0.0003    1.1964   
    35. B(H  32,C   5)                1.0825 -0.000012  0.0000    1.0825   
    36. B(H  33,C   6)                1.0792  0.000163 -0.0001    1.0791   
    37. B(H  34,C   7)                1.0752 -0.000157  0.0001    1.0753   
    38. B(H  35,C   7)                1.0763  0.000024  0.0001    1.0764   
    39. B(H  36,C   8)                1.0865  0.000012  0.0000    1.0866   
    40. B(H  37,C   8)                1.0838 -0.000013  0.0001    1.0838   
    41. B(H  38,C   9)                1.0881 -0.000083  0.0001    1.0882   
    42. B(H  39,C  10)                1.0782 -0.000017  0.0001    1.0783   
    43. B(H  40,C  11)                1.0752  0.000015  0.0001    1.0753   
    44. B(H  41,C  11)                1.0755  0.000095  0.0000    1.0756   
    45. B(H  42,C  14)                1.0759 -0.000120  0.0001    1.0760   
    46. B(H  43,C  14)                1.0824 -0.000055  0.0001    1.0824   
    47. B(H  44,C  15)                1.0836  0.000025  0.0001    1.0837   
    48. B(H  45,C  15)                1.0849 -0.000023  0.0000    1.0849   
    49. B(H  46,C  16)                1.0875  0.000003 -0.0000    1.0875   
    50. B(H  47,C  16)                1.0864 -0.000024  0.0000    1.0864   
    51. B(H  48,C  17)                1.0882 -0.000150  0.0000    1.0883   
    52. B(H  48,H  34)                3.4651 -0.000155  0.0547    3.5198   
    53. B(H  49,C  17)                1.0816  0.000645 -0.0004    1.0811   
    54. B(H  50,C  19)                1.0888 -0.000031  0.0001    1.0889   
    55. B(H  51,C  20)                1.0837 -0.000049  0.0001    1.0838   
    56. B(H  52,O  21)                0.9518 -0.000053  0.0003    0.9521   
    57. B(H  52,O  31)                2.1891 -0.000051  0.0073    2.1964   
    58. B(H  53,C  22)                1.0905 -0.000012  0.0000    1.0905   
    59. B(H  54,C  23)                1.0808 -0.000011  0.0001    1.0809   
    60. B(H  55,C  23)                1.0885  0.000028  0.0000    1.0885   
    61. B(H  56,O  24)                0.9495  0.000198  0.0001    0.9496   
    62. B(H  56,O  21)                2.1076  0.000043  0.0045    2.1121   
    63. B(H  57,C  26)                1.0917 -0.000017  0.0001    1.0918   
    64. B(H  58,O  27)                0.9501  0.000302  0.0000    0.9502   
    65. B(H  58,O  29)                2.3613 -0.000069  0.0047    2.3660   
    66. B(H  59,C  28)                1.0862 -0.000027  0.0001    1.0863   
    67. B(H  60,O  29)                0.9484  0.000266  0.0001    0.9485   
    68. A(O   0,C   1,N  13)          124.43  0.000236   -0.02    124.42   
    69. A(O   0,C   1,C   2)          126.92 -0.000019   -0.02    126.91   
    70. A(C   2,C   1,N  13)          108.64 -0.000216    0.03    108.67   
    71. A(C   1,C   2,H   3)          107.68 -0.000082   -0.04    107.64   
    72. A(H   3,C   2,C   4)          112.31  0.000044   -0.04    112.26   
    73. A(H   3,C   2,C   9)          110.32 -0.000066    0.06    110.38   
    74. A(C   1,C   2,C   9)          114.95  0.000085    0.01    114.96   
    75. A(C   4,C   2,C   9)          106.99 -0.000027    0.01    107.00   
    76. A(C   1,C   2,C   4)          104.56  0.000056   -0.00    104.55   
    77. A(H  12,C   4,C  30)          107.15 -0.000015   -0.02    107.13   
    78. A(C   2,C   4,H  12)          112.35 -0.000047    0.00    112.35   
    79. A(C   5,C   4,C  30)          116.97  0.000080    0.10    117.06   
    80. A(C   2,C   4,C   5)          106.80  0.000080   -0.03    106.77   
    81. A(C   2,C   4,C  30)          104.69 -0.000018   -0.01    104.68   
    82. A(C   5,C   4,H  12)          108.95 -0.000080   -0.04    108.91   
    83. A(C   6,C   5,C   8)          111.70  0.000147   -0.05    111.65   
    84. A(C   4,C   5,C   8)          101.53 -0.000067   -0.04    101.48   
    85. A(C   6,C   5,H  32)          107.90 -0.000071   -0.02    107.89   
    86. A(C   4,C   5,H  32)          109.48 -0.000000   -0.00    109.48   
    87. A(C   4,C   5,C   6)          115.10  0.000100    0.11    115.21   
    88. A(C   8,C   5,H  32)          111.07 -0.000113    0.01    111.08   
    89. A(C   5,C   6,C   7)          124.49  0.000008   -0.14    124.35   
    90. A(C   5,C   6,H  33)          116.96  0.000069    0.06    117.02   
    91. A(C   7,C   6,H  33)          118.52 -0.000080    0.08    118.60   
    92. A(C   6,C   7,H  35)          122.02  0.000197   -0.07    121.95   
    93. A(C   6,C   7,H  34)          121.49 -0.000086    0.11    121.59   
    94. A(H  34,C   7,H  35)          116.49 -0.000111   -0.04    116.45   
    95. A(C   9,C   8,H  36)          109.56 -0.000063    0.01    109.58   
    96. A(C   5,C   8,H  36)          109.13  0.000006    0.01    109.13   
    97. A(H  36,C   8,H  37)          107.75 -0.000010    0.00    107.75   
    98. A(C   5,C   8,C   9)          104.89  0.000072   -0.01    104.88   
    99. A(C   5,C   8,H  37)          112.42 -0.000017   -0.00    112.41   
   100. A(C   9,C   8,H  37)          113.03  0.000011   -0.01    113.02   
   101. A(C   2,C   9,C  10)          112.96 -0.000008    0.01    112.98   
   102. A(C  10,C   9,H  38)          106.67 -0.000068    0.01    106.69   
   103. A(C   2,C   9,C   8)          102.59 -0.000061    0.01    102.60   
   104. A(C   8,C   9,H  38)          108.57  0.000027    0.00    108.57   
   105. A(C   2,C   9,H  38)          108.16  0.000098   -0.04    108.12   
   106. A(C   8,C   9,C  10)          117.55  0.000026   -0.01    117.55   
   107. A(C   9,C  10,H  39)          114.19 -0.000109    0.01    114.20   
   108. A(C  11,C  10,H  39)          119.17  0.000040   -0.01    119.16   
   109. A(C   9,C  10,C  11)          126.64  0.000069   -0.00    126.63   
   110. A(H  40,C  11,H  41)          116.18 -0.000108    0.01    116.19   
   111. A(C  10,C  11,H  41)          122.90  0.000105   -0.01    122.89   
   112. A(C  10,C  11,H  40)          120.92  0.000003   -0.00    120.92   
   113. A(C   1,N  13,C  30)          113.23  0.000341   -0.03    113.19   
   114. A(C   1,N  13,C  14)          122.44  0.000101   -0.04    122.40   
   115. A(C  14,N  13,C  30)          123.69 -0.000457    0.07    123.76   
   116. A(N  13,C  14,C  15)          115.46 -0.000114    0.03    115.49   
   117. A(H  42,C  14,H  43)          107.94 -0.000007   -0.01    107.93   
   118. A(C  15,C  14,H  43)          108.50 -0.000089   -0.02    108.48   
   119. A(N  13,C  14,H  43)          107.19  0.000160   -0.08    107.11   
   120. A(C  15,C  14,H  42)          110.75  0.000049    0.07    110.82   
   121. A(N  13,C  14,H  42)          106.71  0.000011    0.01    106.72   
   122. A(H  44,C  15,H  45)          106.96  0.000044   -0.00    106.95   
   123. A(C  14,C  15,C  16)          117.07 -0.000215    0.04    117.11   
   124. A(C  16,C  15,H  45)          108.87  0.000061   -0.02    108.85   
   125. A(C  14,C  15,H  45)          105.72 -0.000064    0.04    105.76   
   126. A(C  16,C  15,H  44)          108.44 -0.000029    0.01    108.45   
   127. A(C  14,C  15,H  44)          109.34  0.000222   -0.07    109.27   
   128. A(C  17,C  16,H  47)          109.17 -0.000045    0.00    109.17   
   129. A(H  46,C  16,H  47)          106.18  0.000048    0.01    106.18   
   130. A(C  15,C  16,H  47)          107.75 -0.000097    0.02    107.77   
   131. A(C  17,C  16,H  46)          107.19  0.000022   -0.06    107.13   
   132. A(C  15,C  16,H  46)          110.13  0.000031    0.01    110.14   
   133. A(C  15,C  16,C  17)          116.00  0.000042    0.02    116.02   
   134. A(C  16,C  17,O  18)          110.10 -0.000129    0.07    110.17   
   135. A(O  18,C  17,H  49)          109.82  0.000293   -0.01    109.81   
   136. A(C  16,C  17,H  49)          110.48  0.000064   -0.03    110.45   
   137. A(O  18,C  17,H  48)          109.86  0.000133   -0.10    109.76   
   138. A(C  16,C  17,H  48)          109.42 -0.000234   -0.01    109.41   
   139. A(H  48,C  17,H  49)          107.12 -0.000125    0.07    107.19   
   140. A(C  17,O  18,C  19)          115.71  0.000476   -0.08    115.63   
   141. A(O  18,C  19,C  20)          111.79 -0.000074    0.11    111.90   
   142. A(C  28,C  19,H  50)          108.23  0.000017   -0.04    108.19   
   143. A(C  20,C  19,H  50)          108.97  0.000053    0.01    108.98   
   144. A(O  18,C  19,H  50)          109.58  0.000032   -0.01    109.57   
   145. A(C  20,C  19,C  28)          108.96 -0.000044   -0.03    108.94   
   146. A(O  18,C  19,C  28)          109.23  0.000018   -0.04    109.19   
   147. A(O  21,C  20,C  22)          111.42 -0.000111    0.05    111.47   
   148. A(C  19,C  20,C  22)          109.30 -0.000007   -0.03    109.27   
   149. A(C  19,C  20,O  21)          113.77  0.000112    0.02    113.79   
   150. A(O  21,C  20,H  51)          105.65  0.000008   -0.02    105.63   
   151. A(C  19,C  20,H  51)          108.30 -0.000080    0.00    108.31   
   152. A(C  22,C  20,H  51)          108.15  0.000080   -0.02    108.13   
   153. A(C  20,O  21,H  52)          113.39  0.000203   -0.07    113.32   
   154. A(O  25,C  22,H  53)          110.20  0.000043   -0.01    110.19   
   155. A(C  23,C  22,H  53)          108.08 -0.000032    0.00    108.08   
   156. A(C  20,C  22,H  53)          109.24 -0.000001    0.03    109.27   
   157. A(C  23,C  22,O  25)          106.56  0.000040    0.02    106.59   
   158. A(C  20,C  22,O  25)          109.28 -0.000015   -0.03    109.25   
   159. A(C  20,C  22,C  23)          113.43 -0.000032   -0.01    113.43   
   160. A(H  54,C  23,H  55)          107.65 -0.000055    0.02    107.67   
   161. A(C  22,C  23,H  55)          109.21 -0.000045    0.01    109.23   
   162. A(O  24,C  23,H  54)          107.29  0.000041   -0.01    107.28   
   163. A(C  22,C  23,H  54)          108.13 -0.000104    0.03    108.17   
   164. A(O  24,C  23,H  55)          111.75  0.000078   -0.01    111.74   
   165. A(C  22,C  23,O  24)          112.61  0.000074   -0.04    112.57   
   166. A(C  23,O  24,H  56)          108.68  0.000352   -0.06    108.62   
   167. A(C  22,O  25,C  26)          114.68  0.000246   -0.03    114.65   
   168. A(C  28,C  26,H  57)          109.43  0.000059   -0.02    109.41   
   169. A(O  27,C  26,H  57)          110.38 -0.000055    0.01    110.39   
   170. A(O  25,C  26,H  57)          109.73 -0.000020    0.00    109.73   
   171. A(O  27,C  26,C  28)          111.50 -0.000056    0.01    111.51   
   172. A(O  25,C  26,C  28)          109.07 -0.000122    0.07    109.14   
   173. A(O  25,C  26,O  27)          106.68  0.000193   -0.07    106.61   
   174. A(C  26,O  27,H  58)          107.99  0.000137    0.00    107.99   
   175. A(O  29,C  28,H  59)          110.44 -0.000000    0.02    110.46   
   176. A(C  26,C  28,H  59)          107.48 -0.000052    0.03    107.51   
   177. A(C  19,C  28,H  59)          109.19  0.000018    0.01    109.20   
   178. A(C  26,C  28,O  29)          107.50  0.000092   -0.03    107.46   
   179. A(C  19,C  28,O  29)          111.85 -0.000047   -0.02    111.84   
   180. A(C  19,C  28,C  26)          110.27 -0.000010   -0.00    110.27   
   181. A(C  28,O  29,H  60)          108.86  0.000152   -0.03    108.82   
   182. A(N  13,C  30,O  31)          125.29  0.000188   -0.03    125.26   
   183. A(C   4,C  30,O  31)          126.11 -0.000026    0.03    126.14   
   184. A(C   4,C  30,N  13)          108.60 -0.000161    0.01    108.62   
   185. D(C   9,C   2,C   1,O   0)     60.58 -0.000112    0.33     60.91   
   186. D(H   3,C   2,C   1,N  13)    116.91  0.000051   -0.54    116.37   
   187. D(H   3,C   2,C   1,O   0)    -62.81 -0.000023    0.28    -62.53   
   188. D(C   4,C   2,C   1,N  13)     -2.72  0.000011   -0.46     -3.18   
   189. D(C   4,C   2,C   1,O   0)    177.56 -0.000063    0.35    177.91   
   190. D(C   5,C   4,C   2,H   3)    123.60 -0.000099    0.33    123.93   
   191. D(H  12,C   4,C   2,H   3)      4.21 -0.000024    0.40      4.60   
   192. D(C   5,C   4,C   2,C   1)   -119.93 -0.000142    0.25   -119.68   
   193. D(H  12,C   4,C   2,C   1)    120.68 -0.000067    0.32    121.00   
   194. D(H  12,C   4,C   2,C   9)   -116.97  0.000048    0.34   -116.64   
   195. D(C   5,C   4,C   2,C   9)      2.42 -0.000026    0.27      2.69   
   196. D(C   6,C   5,C   4,C  30)    -21.97  0.000141   -0.31    -22.27   
   197. D(C   8,C   5,C   4,C  30)   -142.78 -0.000045   -0.27   -143.04   
   198. D(C   8,C   5,C   4,C   2)    -25.98  0.000038   -0.24    -26.23   
   199. D(C   6,C   5,C   4,C   2)     94.83  0.000224   -0.28     94.55   
   200. D(C   6,C   5,C   4,H  12)   -143.59  0.000169   -0.32   -143.91   
   201. D(C   8,C   5,C   4,H  12)     95.59 -0.000017   -0.28     95.31   
   202. D(C   7,C   6,C   5,C   8)   -127.04  0.000121    0.02   -127.02   
   203. D(H  33,C   6,C   5,C   4)    -63.94 -0.000080    0.02    -63.91   
   204. D(C   7,C   6,C   5,C   4)    117.88  0.000038    0.04    117.92   
   205. D(C   7,C   6,C   5,H  32)     -4.69  0.000024   -0.01     -4.70   
   206. D(H  33,C   6,C   5,C   8)     51.14  0.000002    0.00     51.14   
   207. D(H  35,C   7,C   6,C   5)     -1.66 -0.000035   -0.08     -1.75   
   208. D(H  34,C   7,C   6,H  33)      0.08 -0.000108   -0.02      0.06   
   209. D(H  34,C   7,C   6,C   5)    178.24 -0.000226   -0.04    178.19   
   210. D(H  35,C   7,C   6,H  33)   -179.82  0.000083   -0.06   -179.88   
   211. D(H  36,C   8,C   5,C   4)    -76.72  0.000037    0.12    -76.60   
   212. D(H  36,C   8,C   5,C   6)    160.12 -0.000115    0.05    160.16   
   213. D(C   9,C   8,C   5,H  32)    156.91 -0.000079    0.11    157.03   
   214. D(C   9,C   8,C   5,C   6)    -82.56 -0.000147    0.06    -82.50   
   215. D(C   9,C   8,C   5,C   4)     40.60  0.000005    0.13     40.74   
   216. D(H  36,C   8,C   5,H  32)     39.59 -0.000047    0.10     39.69   
   217. D(C  10,C   9,C   8,H  37)     73.22 -0.000014    0.02     73.24   
   218. D(C  10,C   9,C   8,C   5)   -163.97  0.000020    0.00   -163.97   
   219. D(C   2,C   9,C   8,H  37)   -162.21 -0.000057    0.04   -162.17   
   220. D(C   2,C   9,C   8,H  36)     77.62 -0.000007    0.03     77.65   
   221. D(C   2,C   9,C   8,C   5)    -39.40 -0.000022    0.02    -39.38   
   222. D(C  10,C   9,C   2,C   4)    149.90  0.000004   -0.17    149.73   
   223. D(C  10,C   9,C   2,C   1)    -94.50  0.000104   -0.16    -94.67   
   224. D(C   8,C   9,C   2,C   4)     22.36  0.000019   -0.18     22.18   
   225. D(C   8,C   9,C   2,H   3)   -100.07  0.000022   -0.17   -100.25   
   226. D(C  10,C   9,C   8,H  36)    -46.95  0.000035    0.01    -46.94   
   227. D(C   8,C   9,C   2,C   1)    137.95  0.000120   -0.17    137.78   
   228. D(C  10,C   9,C   2,H   3)     27.47  0.000007   -0.17     27.30   
   229. D(H  39,C  10,C   9,C   8)    174.73 -0.000037    0.08    174.81   
   230. D(H  39,C  10,C   9,C   2)     55.52  0.000034    0.06     55.58   
   231. D(C  11,C  10,C   9,H  38)    115.97 -0.000032    0.10    116.06   
   232. D(C  11,C  10,C   9,C   8)     -6.12 -0.000030    0.09     -6.04   
   233. D(C  11,C  10,C   9,C   2)   -125.33  0.000040    0.07   -125.27   
   234. D(H  41,C  11,C  10,H  39)    179.31  0.000007   -0.01    179.31   
   235. D(H  41,C  11,C  10,C   9)      0.20  0.000002   -0.01      0.19   
   236. D(H  40,C  11,C  10,H  39)     -0.33  0.000001    0.00     -0.33   
   237. D(H  40,C  11,C  10,C   9)   -179.44 -0.000004   -0.01   -179.44   
   238. D(C  30,N  13,C   1,C   2)     -0.69 -0.000001    0.42     -0.28   
   239. D(C  30,N  13,C   1,O   0)    179.03  0.000069   -0.36    178.67   
   240. D(C  14,N  13,C   1,C   2)   -171.84  0.000143    0.47   -171.36   
   241. D(C  14,N  13,C   1,O   0)      7.89  0.000213   -0.31      7.59   
   242. D(H  43,C  14,N  13,C   1)     47.80 -0.000063   -0.52     47.28   
   243. D(H  42,C  14,N  13,C  30)     -6.98  0.000092   -0.49     -7.47   
   244. D(H  42,C  14,N  13,C   1)    163.23  0.000011   -0.56    162.67   
   245. D(C  15,C  14,N  13,C  30)    116.58  0.000088   -0.38    116.19   
   246. D(C  15,C  14,N  13,C   1)    -73.21  0.000006   -0.45    -73.67   
   247. D(C  16,C  15,C  14,N  13)    -54.78  0.000019   -0.57    -55.35   
   248. D(H  44,C  15,C  14,H  43)    -51.31 -0.000059   -0.49    -51.80   
   249. D(H  44,C  15,C  14,H  42)   -169.61 -0.000025   -0.50   -170.11   
   250. D(H  44,C  15,C  14,N  13)     68.99  0.000005   -0.58     68.41   
   251. D(C  16,C  15,C  14,H  43)   -175.08 -0.000045   -0.48   -175.55   
   252. D(C  16,C  15,C  14,H  42)     66.62 -0.000010   -0.49     66.13   
   253. D(H  46,C  16,C  15,H  45)   -166.33 -0.000018   -0.21   -166.53   
   254. D(H  46,C  16,C  15,H  44)    -50.29  0.000051   -0.22    -50.51   
   255. D(H  46,C  16,C  15,C  14)     73.93  0.000165   -0.27     73.66   
   256. D(C  17,C  16,C  15,H  45)     71.74 -0.000104   -0.15     71.58   
   257. D(C  17,C  16,C  15,H  44)   -172.23 -0.000035   -0.17   -172.39   
   258. D(C  17,C  16,C  15,C  14)    -48.01  0.000080   -0.22    -48.22   
   259. D(H  48,C  17,C  16,H  47)    -52.24  0.000017    0.28    -51.96   
   260. D(H  48,C  17,C  16,H  46)     62.36  0.000063    0.26     62.61   
   261. D(H  48,C  17,C  16,C  15)   -174.16  0.000151    0.24   -173.92   
   262. D(O  18,C  17,C  16,H  47)     68.59 -0.000049    0.20     68.79   
   263. D(O  18,C  17,C  16,H  46)   -176.81 -0.000003    0.17   -176.64   
   264. D(O  18,C  17,C  16,C  15)    -53.33  0.000084    0.16    -53.17   
   265. D(C  19,O  18,C  17,H  49)     47.93  0.000086   -0.17     47.76   
   266. D(C  19,O  18,C  17,H  48)    -69.64 -0.000015   -0.19    -69.83   
   267. D(C  19,O  18,C  17,C  16)    169.79  0.000273   -0.16    169.63   
   268. D(H  50,C  19,O  18,C  17)      1.78 -0.000111    0.84      2.63   
   269. D(C  28,C  19,O  18,C  17)    120.19 -0.000060    0.76    120.95   
   270. D(C  20,C  19,O  18,C  17)   -119.14 -0.000151    0.77   -118.37   
   271. D(C  22,C  20,C  19,H  50)     63.96  0.000040   -0.23     63.73   
   272. D(C  22,C  20,C  19,C  28)    -53.94  0.000014   -0.17    -54.11   
   273. D(C  22,C  20,C  19,O  18)   -174.76  0.000069   -0.17   -174.94   
   274. D(O  21,C  20,C  19,H  50)    -61.28  0.000110   -0.28    -61.57   
   275. D(O  21,C  20,C  19,C  28)   -179.19  0.000084   -0.22   -179.41   
   276. D(O  21,C  20,C  19,O  18)     59.99  0.000138   -0.23     59.77   
   277. D(H  52,O  21,C  20,H  51)    154.65 -0.000030    0.25    154.90   
   278. D(H  52,O  21,C  20,C  22)    -88.12  0.000013    0.24    -87.88   
   279. D(H  52,O  21,C  20,C  19)     35.99  0.000000    0.25     36.24   
   280. D(O  25,C  22,C  20,H  51)    -61.41 -0.000040    0.21    -61.20   
   281. D(O  25,C  22,C  20,O  21)   -177.11 -0.000036    0.22   -176.89   
   282. D(O  25,C  22,C  20,C  19)     56.30 -0.000094    0.18     56.48   
   283. D(C  23,C  22,C  20,H  51)     57.32 -0.000020    0.21     57.54   
   284. D(C  23,C  22,C  20,O  21)    -58.37 -0.000016    0.22    -58.15   
   285. D(C  23,C  22,C  20,C  19)    175.04 -0.000074    0.19    175.22   
   286. D(H  54,C  23,C  22,H  53)     68.20  0.000004    0.24     68.43   
   287. D(H  54,C  23,C  22,O  25)    -50.22 -0.000052    0.23    -49.99   
   288. D(H  54,C  23,C  22,C  20)   -170.52 -0.000041    0.26   -170.25   
   289. D(O  24,C  23,C  22,H  53)    -50.17 -0.000023    0.25    -49.91   
   290. D(O  24,C  23,C  22,O  25)   -168.59 -0.000079    0.25   -168.34   
   291. D(O  24,C  23,C  22,C  20)     71.12 -0.000068    0.28     71.40   
   292. D(H  56,O  24,C  23,H  55)     68.65  0.000091   -0.69     67.96   
   293. D(H  56,O  24,C  23,H  54)   -173.57  0.000093   -0.68   -174.25   
   294. D(H  56,O  24,C  23,C  22)    -54.71  0.000035   -0.67    -55.38   
   295. D(C  26,O  25,C  22,H  53)     57.39 -0.000024   -0.00     57.39   
   296. D(C  26,O  25,C  22,C  23)    174.42 -0.000016    0.01    174.42   
   297. D(C  26,O  25,C  22,C  20)    -62.65 -0.000040   -0.01    -62.66   
   298. D(H  57,C  26,O  25,C  22)    -57.03  0.000033   -0.14    -57.17   
   299. D(C  28,C  26,O  25,C  22)     62.83  0.000019   -0.12     62.71   
   300. D(O  27,C  26,O  25,C  22)   -176.61 -0.000004   -0.11   -176.73   
   301. D(H  58,O  27,C  26,H  57)     74.53  0.000064   -0.59     73.94   
   302. D(H  58,O  27,C  26,C  28)    -47.33  0.000065   -0.58    -47.91   
   303. D(H  58,O  27,C  26,O  25)   -166.31  0.000125   -0.63   -166.94   
   304. D(C  19,C  28,C  26,O  25)    -57.50  0.000061    0.10    -57.39   
   305. D(O  29,C  28,C  19,H  50)     55.95  0.000054   -0.02     55.94   
   306. D(O  29,C  28,C  19,C  20)    174.32  0.000102   -0.04    174.28   
   307. D(O  29,C  28,C  19,O  18)    -63.30 -0.000006    0.05    -63.25   
   308. D(C  26,C  28,C  19,H  50)    -63.61 -0.000024    0.04    -63.57   
   309. D(C  26,C  28,C  19,C  20)     54.75  0.000024    0.01     54.77   
   310. D(C  19,C  28,C  26,O  27)   -175.05 -0.000067    0.14   -174.90   
   311. D(C  26,C  28,C  19,O  18)    177.14 -0.000084    0.11    177.24   
   312. D(O  29,C  28,C  26,H  57)    -59.63  0.000004    0.18    -59.45   
   313. D(O  29,C  28,C  26,O  27)     62.77 -0.000062    0.19     62.96   
   314. D(O  29,C  28,C  26,O  25)   -179.67  0.000066    0.15   -179.52   
   315. D(C  19,C  28,C  26,H  57)     62.55 -0.000002    0.14     62.68   
   316. D(H  60,O  29,C  28,H  59)    -52.45  0.000125   -0.73    -53.18   
   317. D(H  60,O  29,C  28,C  26)   -169.42  0.000135   -0.76   -170.18   
   318. D(H  60,O  29,C  28,C  19)     69.39  0.000115   -0.72     68.67   
   319. D(O  31,C  30,N  13,C   1)   -175.42 -0.000091    0.09   -175.33   
   320. D(C   4,C  30,N  13,C  14)    174.93 -0.000100   -0.25    174.68   
   321. D(C   4,C  30,N  13,C   1)      3.92 -0.000013   -0.18      3.73   
   322. D(O  31,C  30,C   4,C   5)    -68.08  0.000244   -0.40    -68.48   
   323. D(O  31,C  30,C   4,C   2)    173.98  0.000111   -0.41    173.57   
   324. D(N  13,C  30,C   4,H  12)   -124.84  0.000101   -0.11   -124.95   
   325. D(N  13,C  30,C   4,C   5)    112.59  0.000164   -0.11    112.49   
   326. D(O  31,C  30,N  13,C  14)     -4.40 -0.000178    0.02     -4.38   
   327. D(N  13,C  30,C   4,C   2)     -5.35  0.000031   -0.12     -5.47   
    ----------------------------------------------------------------------------

Geometry step timings:
Preparation and reading OPT file:      0.003 s ( 7.979 %)
Internal coordinates            :      0.000 s ( 0.137 %)
B/P matrices and projection     :      0.011 s (35.480 %)
Hessian update/contruction      :      0.006 s (18.758 %)
Making the step                 :      0.007 s (22.716 %)
Converting the step to Cartesian:      0.001 s ( 3.000 %)
Storing new data                :      0.000 s ( 0.840 %)
Checking convergence            :      0.000 s ( 0.165 %)
Final printing                  :      0.003 s (10.913 %)
Total time                      :      0.032 s

Time for energy+gradient        :    552.381 s
Time for complete geometry iter :    552.485 s

         *************************************************************
         *                GEOMETRY OPTIMIZATION CYCLE   9            *
         *************************************************************
---------------------------------
CARTESIAN COORDINATES (ANGSTROEM)
---------------------------------
  O     -2.727826    2.674222    1.779636
  C     -2.524203    1.516427    1.590797
  C     -3.539011    0.395332    1.640802
  H     -3.929699    0.350595    2.650875
  C     -2.741761   -0.863431    1.269075
  C     -3.396813   -1.446294   -0.021300
  C     -2.758647   -1.011640   -1.318124
  C     -2.187281   -1.831907   -2.178236
  C     -4.843399   -0.923067    0.105049
  C     -4.698263    0.516144    0.618206
  C     -5.923258    1.177551    1.193471
  C     -7.148463    0.689753    1.205898
  H     -2.771780   -1.614922    2.048106
  N     -1.282497    0.977008    1.307847
  C     -0.050129    1.767147    1.370432
  C      0.150085    2.764225    0.228188
  C      0.102020    2.208633   -1.199511
  C      0.937293    0.965264   -1.460119
  O      2.267238    1.180230   -1.053496
  C      3.086119    0.041582   -1.029439
  C      3.607569   -0.255133    0.374005
  O      2.594247   -0.484941    1.317620
  C      4.593964   -1.431507    0.310333
  C      5.262816   -1.734985    1.646906
  O      4.384537   -2.306827    2.567355
  O      5.625309   -1.123087   -0.593623
  C      5.210272   -0.936168   -1.901510
  O      6.347119   -0.719983   -2.648233
  C      4.269428    0.257138   -1.960270
  O      3.863290    0.407459   -3.294082
  C     -1.306814   -0.390856    1.159796
  O     -0.346556   -1.084394    0.991561
  H     -3.369252   -2.527821    0.016811
  H     -2.804725    0.039178   -1.559092
  H     -1.770636   -1.476760   -3.103789
  H     -2.113316   -2.889777   -1.993666
  H     -5.375129   -1.520199    0.840792
  H     -5.389105   -0.986926   -0.829192
  H     -4.360554    1.144670   -0.203464
  H     -5.741461    2.152263    1.617175
  H     -7.960904    1.247754    1.635726
  H     -7.399165   -0.270153    0.790524
  H      0.765107    1.066300    1.413775
  H     -0.069233    2.314156    2.304293
  H     -0.583750    3.557152    0.312620
  H      1.122805    3.214092    0.396743
  H     -0.922767    1.969321   -1.473667
  H      0.419053    2.999223   -1.873854
  H      0.911011    0.727799   -2.521864
  H      0.525538    0.116193   -0.932481
  H      2.524103   -0.819426   -1.387863
  H      4.144799    0.616656    0.728928
  H      1.845636   -0.952395    0.960440
  H      4.064526   -2.327852   -0.014403
  H      6.055147   -2.449224    1.472738
  H      5.717527   -0.825289    2.034914
  H      3.634196   -1.733374    2.667097
  H      4.687797   -1.827882   -2.253397
  H      6.081274   -0.390318   -3.498788
  H      4.827408    1.129636   -1.632568
  H      3.400668    1.230750   -3.382196

----------------------------
CARTESIAN COORDINATES (A.U.)
----------------------------
  NO LB      ZA    FRAG     MASS         X           Y           Z
   0 O     8.0000    0    15.999   -5.154843    5.053547    3.363025
   1 C     6.0000    0    12.011   -4.770052    2.865632    3.006171
   2 C     6.0000    0    12.011   -6.687761    0.747070    3.100666
   3 H     1.0000    0     1.008   -7.426054    0.662529    5.009428
   4 C     6.0000    0    12.011   -5.181177   -1.631649    2.398205
   5 C     6.0000    0    12.011   -6.419047   -2.733099   -0.040251
   6 C     6.0000    0    12.011   -5.213088   -1.911723   -2.490894
   7 C     6.0000    0    12.011   -4.133362   -3.461803   -4.116269
   8 C     6.0000    0    12.011   -9.152698   -1.744343    0.198513
   9 C     6.0000    0    12.011   -8.878430    0.975371    1.168240
  10 C     6.0000    0    12.011  -11.193336    2.225249    2.255333
  11 C     6.0000    0    12.011  -13.508638    1.303445    2.278818
  12 H     1.0000    0     1.008   -5.237906   -3.051761    3.870360
  13 N     7.0000    0    14.007   -2.423568    1.846277    2.471473
  14 C     6.0000    0    12.011   -0.094730    3.339424    2.589741
  15 C     6.0000    0    12.011    0.283620    5.223629    0.431213
  16 C     6.0000    0    12.011    0.192789    4.173711   -2.266748
  17 C     6.0000    0    12.011    1.771228    1.824084   -2.759224
  18 O     8.0000    0    15.999    4.284459    2.230311   -1.990818
  19 C     6.0000    0    12.011    5.831919    0.078578   -1.945357
  20 C     6.0000    0    12.011    6.817317   -0.482131    0.706768
  21 O     8.0000    0    15.999    4.902416   -0.916405    2.489941
  22 C     6.0000    0    12.011    8.681334   -2.705156    0.586445
  23 C     6.0000    0    12.011    9.945280   -3.278646    3.112202
  24 O     8.0000    0    15.999    8.285575   -4.359272    4.851598
  25 O     8.0000    0    15.999   10.630294   -2.122327   -1.121785
  26 C     6.0000    0    12.011    9.845987   -1.769102   -3.593333
  27 O     8.0000    0    15.999   11.994316   -1.360571   -5.004435
  28 C     6.0000    0    12.011    8.068049    0.485921   -3.704373
  29 O     8.0000    0    15.999    7.300560    0.769986   -6.224913
  30 C     6.0000    0    12.011   -2.469520   -0.738610    2.191696
  31 O     8.0000    0    15.999   -0.654895   -2.049207    1.873779
  32 H     1.0000    0     1.008   -6.366963   -4.776889    0.031768
  33 H     1.0000    0     1.008   -5.300162    0.074037   -2.946257
  34 H     1.0000    0     1.008   -3.346017   -2.790673   -5.865312
  35 H     1.0000    0     1.008   -3.993589   -5.460887   -3.767483
  36 H     1.0000    0     1.008  -10.157522   -2.872761    1.588866
  37 H     1.0000    0     1.008  -10.183933   -1.865020   -1.566947
  38 H     1.0000    0     1.008   -8.240253    2.163113   -0.384491
  39 H     1.0000    0     1.008  -10.849790    4.067188    3.056017
  40 H     1.0000    0     1.008  -15.043928    2.357913    3.091075
  41 H     1.0000    0     1.008  -13.982395   -0.510516    1.493874
  42 H     1.0000    0     1.008    1.445843    2.015015    2.671648
  43 H     1.0000    0     1.008   -0.130831    4.373121    4.354483
  44 H     1.0000    0     1.008   -1.103128    6.722043    0.590767
  45 H     1.0000    0     1.008    2.121793    6.073754    0.749735
  46 H     1.0000    0     1.008   -1.743778    3.721477   -2.784826
  47 H     1.0000    0     1.008    0.791896    5.667710   -3.541071
  48 H     1.0000    0     1.008    1.721560    1.375341   -4.765633
  49 H     1.0000    0     1.008    0.993122    0.219573   -1.762134
  50 H     1.0000    0     1.008    4.769864   -1.548491   -2.622680
  51 H     1.0000    0     1.008    7.832536    1.165311    1.377473
  52 H     1.0000    0     1.008    3.487746   -1.799766    1.814969
  53 H     1.0000    0     1.008    7.680841   -4.399003   -0.027217
  54 H     1.0000    0     1.008   11.442569   -4.628362    2.783072
  55 H     1.0000    0     1.008   10.804561   -1.559570    3.845430
  56 H     1.0000    0     1.008    6.867636   -3.275602    5.040082
  57 H     1.0000    0     1.008    8.858652   -3.454197   -4.258304
  58 H     1.0000    0     1.008   11.491943   -0.737593   -6.611750
  59 H     1.0000    0     1.008    9.122478    2.134703   -3.085106
  60 H     1.0000    0     1.008    6.426331    2.325781   -6.391424

--------------------------------
INTERNAL COORDINATES (ANGSTROEM)
--------------------------------
 O      0   0   0     0.000000000000     0.00000000     0.00000000
 C      1   0   0     1.190634983832     0.00000000     0.00000000
 C      2   1   0     1.513006701014   126.91179852     0.00000000
 H      3   2   1     1.083921552930   107.64600623   297.46094655
 C      3   2   1     1.535667319638   104.54580060   177.90500271
 C      5   3   2     1.560093142815   106.76639346   240.33707931
 C      6   5   3     1.509282143795   115.18563185    94.54649211
 C      7   6   5     1.318745545299   124.36583326   117.91558427
 C      6   5   3     1.543483592493   101.48808832   333.77151538
 C      9   6   5     1.534836274362   104.86926810    40.73586517
 C     10   9   6     1.506320983147   117.54948975   196.02974303
 C     11  10   9     1.318797750832   126.63473984   353.96491249
 H      5   3   2     1.082833796047   112.35374013   121.00166508
 N      2   1   3     1.383064690973   124.41955062   181.24144527
 C     14   2   1     1.465253322119   122.41470852     7.57621272
 C     15  14   2     1.529369989725   115.45306629   286.32991066
 C     16  15  14     1.532749019903   117.08152096   304.66699622
 C     17  16  15     1.520383421114   116.03179353   311.77854690
 O     18  17  16     1.407233210157   110.16687585   306.81745984
 C     19  18  17     1.402734531116   115.63704649   169.62636535
 C     20  19  18     1.526304482445   111.90157952   241.62869948
 O     21  20  19     1.403581753349   113.78798006    59.76757296
 C     21  20  19     1.536517390209   109.27210998   185.06532525
 C     23  21  20     1.525086753189   113.42683803   175.22267502
 O     24  23  21     1.394848705320   112.56652447    71.39965472
 O     23  21  20     1.405678975903   109.24920410    56.48203967
 C     26  23  21     1.384833226580   114.64953212   297.34119029
 O     27  26  23     1.377226530985   106.61036782   183.27296268
 C     27  26  23     1.520730452993   109.13688337    62.71403944
 O     29  27  26     1.402354726055   107.45996591   180.47508503
 C     14   2   1     1.376067110482   113.19353282   178.67076779
 O     31  14   2     1.196408746426   125.25194664   184.67447211
 H      6   5   3     1.082549655107   109.47808240   216.30925403
 H      7   6   5     1.079077433106   117.01762742   296.08710044
 H      8   7   6     1.075347476177   121.58819971   178.20365512
 H      8   7   6     1.076394446386   121.95392428   358.25845748
 H      9   6   5     1.086564240636   109.13404079   283.39934538
 H      9   6   5     1.083826368225   112.41767285   163.91176336
 H     10   9   6     1.088225020895   108.57134571    74.90500542
 H     11  10   9     1.078257139724   114.19709869   174.80947449
 H     12  11  10     1.075256103183   120.91561835   180.55692250
 H     12  11  10     1.075550218382   122.88953119     0.18804792
 H     15  14   2     1.075952994727   106.72202069   162.67652288
 H     15  14   2     1.082442021429   107.12845057    47.27983977
 H     16  15  14     1.083686148476   109.28033657    68.41450987
 H     16  15  14     1.084884161004   105.76446720   183.23622148
 H     17  16  15     1.087483200613   110.12939903    73.65783284
 H     17  16  15     1.086407455216   107.77230495   189.07076893
 H     18  17  16     1.088294343259   109.41466222   186.06742824
 H     18  17  16     1.081140324003   110.44869177    68.30005433
 H     20  19  18     1.088881883036   109.56677653     2.62428638
 H     21  20  19     1.083790877751   108.30637754   302.64134100
 H     22  21  20     0.952108039818   113.31761468    36.23582741
 H     23  21  20     1.090501027006   109.26657802   295.86915766
 H     24  23  21     1.080860789832   108.16575604   189.74957772
 H     24  23  21     1.088512349370   109.22627941   306.66551412
 H     25  24  23     0.949636066338   108.61812349   304.61864526
 H     27  26  23     1.091768101074   109.72967828   302.83237438
 H     28  27  26     0.950155482730   107.99076069   193.06423710
 H     29  27  26     1.086270015822   107.50679085    61.56118642
 H     30  29  27     0.948468677973   108.82417879   189.82069546

---------------------------
INTERNAL COORDINATES (A.U.)
---------------------------
 O      0   0   0     0.000000000000     0.00000000     0.00000000
 C      1   0   0     2.249974044909     0.00000000     0.00000000
 C      2   1   0     2.859168303704   126.91179852     0.00000000
 H      3   2   1     2.048314885692   107.64600623   297.46094655
 C      3   2   1     2.901990666928   104.54580060   177.90500271
 C      5   3   2     2.948148783328   106.76639346   240.33707931
 C      6   5   3     2.852129910590   115.18563185    94.54649211
 C      7   6   5     2.492067920944   124.36583326   117.91558427
 C      6   5   3     2.916761282013   101.48808832   333.77151538
 C      9   6   5     2.900420218952   104.86926810    40.73586517
 C     10   9   6     2.846534127928   117.54948975   196.02974303
 C     11  10   9     2.492166575103   126.63473984   353.96491249
 H      5   3   2     2.046259323084   112.35374013   121.00166508
 N      2   1   3     2.613613491435   124.41955062   181.24144527
 C     14   2   1     2.768927495622   122.41470852     7.57621272
 C     15  14   2     2.890090438018   115.45306629   286.32991066
 C     16  15  14     2.896475879652   117.08152096   304.66699622
 C     17  16  15     2.873108284460   116.03179353   311.77854690
 O     18  17  16     2.659285373756   110.16687585   306.81745984
 C     19  18  17     2.650784102403   115.63704649   169.62636535
 C     20  19  18     2.884297468798   111.90157952   241.62869948
 O     21  20  19     2.652385120399   113.78798006    59.76757296
 C     21  20  19     2.903597067502   109.27210998   185.06532525
 C     23  21  20     2.881996293998   113.42683803   175.22267502
 O     24  23  21     2.635882051309   112.56652447    71.39965472
 O     23  21  20     2.656348296668   109.24920410    56.48203967
 C     26  23  21     2.616955539390   114.64953212   297.34119029
 O     27  26  23     2.602580967931   106.61036782   183.27296268
 C     27  26  23     2.873764079670   109.13688337    62.71403944
 O     29  27  26     2.650066374854   107.45996591   180.47508503
 C     14   2   1     2.600389980707   113.19353282   178.67076779
 O     31  14   2     2.260884874973   125.25194664   184.67447211
 H      6   5   3     2.045722374524   109.47808240   216.30925403
 H      7   6   5     2.039160825866   117.01762742   296.08710044
 H      8   7   6     2.032112228777   121.58819971   178.20365512
 H      8   7   6     2.034090715744   121.95392428   358.25845748
 H      9   6   5     2.053308841713   109.13404079   283.39934538
 H      9   6   5     2.048135012668   112.41767285   163.91176336
 H     10   9   6     2.056447261572   108.57134571    74.90500542
 H     11  10   9     2.037610696023   114.19709869   174.80947449
 H     12  11  10     2.031939558843   120.91561835   180.55692250
 H     12  11  10     2.032495356022   122.88953119     0.18804792
 H     15  14   2     2.033256493006   106.72202069   162.67652288
 H     15  14   2     2.045518976348   107.12845057    47.27983977
 H     16  15  14     2.047870035743   109.28033657    68.41450987
 H     16  15  14     2.050133951327   105.76446720   183.23622148
 H     17  16  15     2.055045424398   110.12939903    73.65783284
 H     17  16  15     2.053012560208   107.77230495   189.07076893
 H     18  17  16     2.056578261855   109.41466222   186.06742824
 H     18  17  16     2.043059124704   110.44869177    68.30005433
 H     20  19  18     2.057688551127   109.56677653     2.62428638
 H     21  20  19     2.048067945391   108.30637754   302.64134100
 H     22  21  20     1.799223445161   113.31761468    36.23582741
 H     23  21  20     2.060748289801   109.26657802   295.86915766
 H     24  23  21     2.042530881676   108.16575604   189.74957772
 H     24  23  21     2.056990233700   109.22627941   306.66551412
 H     25  24  23     1.794552092274   108.61812349   304.61864526
 H     27  26  23     2.063142712780   109.72967828   302.83237438
 H     28  27  26     1.795533647004   107.99076069   193.06423710
 H     29  27  26     2.052752837394   107.50679085    61.56118642
 H     30  29  27     1.792346047971   108.82417879   189.82069546

------------------------------------------------------------------------------
                   ___                                                        
                  /   \      - P O W E R E D   B Y -                         
                 /     \                                                     
                 |  |  |   _    _      __       _____    __    __             
                 |  |  |  | |  | |    /  \     |  _  \  |  |  /  |          
                  \  \/   | |  | |   /    \    | | | |  |  | /  /          
                 / \  \   | |__| |  /  /\  \   | |_| |  |  |/  /          
                |  |  |   |  __  | /  /__\  \  |    /   |      \           
                |  |  |   | |  | | |   __   |  |    \   |  |\   \          
                \     /   | |  | | |  |  |  |  | |\  \  |  | \   \       
                 \___/    |_|  |_| |__|  |__|  |_| \__\ |__|  \__/        
                                                                              
                      - O R C A' S   B I G   F R I E N D -                    
                                      &                                       
                       - I N T E G R A L  F E E D E R -                       
                                                                              
 v1 FN, 2020, v2 2021, v3 2022-2024                                           
------------------------------------------------------------------------------


----------------------
SHARK INTEGRAL PACKAGE
----------------------

Number of atoms                             ...     61
Number of basis functions                   ...    482
Number of shells                            ...    242
Maximum angular momentum                    ...      2
Integral batch strategy                     ... SHARK/LIBINT Hybrid
RI-J (if used) integral strategy            ... SPLIT-RIJ (Revised 2003 algorithm where possible)
Printlevel                                  ...      1
Contraction scheme used                     ... SEGMENTED contraction
Prescreening option                         ... SCHWARTZ
   Thresh                                   ... 2.500e-11
   Tcut                                     ... 2.500e-12
   Tpresel                                  ... 2.500e-12 
Coulomb Range Separation                    ... NOT USED
Exchange Range Separation                   ... NOT USED
Multipole approximations                    ... NOT USED
Finite Nucleus Model                        ... NOT USED
CABS basis                                  ... NOT available
Auxiliary Coulomb fitting basis             ... NOT available
Auxiliary J/K fitting basis                 ... NOT available
Auxiliary Correlation fitting basis         ... NOT available
Auxiliary 'external' fitting basis          ... NOT available

Checking pre-screening integrals            ... done (  0.0 sec) Dimension = 242
Check shell pair data                       ... done (  0.0 sec)
Shell pair information
Shell pair cut-off parameter TPreSel        ...   2.5e-12
Total number of shell pairs                 ...     29403
Shell pairs after pre-screening             ...     18317
Total number of primitive shell pairs       ...    165748
Primitive shell pairs kept                  ...     54432
          la=0 lb=0:   6972 shell pairs
          la=1 lb=0:   6134 shell pairs
          la=1 lb=1:   1363 shell pairs
          la=2 lb=0:   2474 shell pairs
          la=2 lb=1:   1142 shell pairs
          la=2 lb=2:    232 shell pairs

Calculating one electron integrals          ... done (  0.2 sec)
Calculating Nuclear repulsion               ... done (  0.0 sec) ENN=   3223.169769314424 Eh

Diagonalization of the overlap matrix:
Smallest eigenvalue                        ... 1.166e-03
Time for diagonalization                   ...    0.022 sec
Threshold for overlap eigenvalues          ... 1.000e-07
Number of eigenvalues below threshold      ... 0
Time for construction of square roots      ...    0.011 sec
Total time needed                          ...    0.034 sec

-------------------
DFT GRID GENERATION
-------------------

General Integration Accuracy     IntAcc      ... 4.388
Radial Grid Type                 RadialGrid  ... OptM3 with GC (2021)
Angular Grid (max. ang.)         AngularGrid ... 4 (Lebedev-302)
Angular grid pruning method      GridPruning ... 4 (adaptive)
Weight generation scheme         WeightScheme... mBecke (2022)
Basis function cutoff            BFCut       ... 1.0000e-11
Integration weight cutoff        WCut        ... 1.0000e-14
Partially contracted basis set               ... off
Rotationally invariant grid construction     ... off
Angular grids for H and He will be reduced by one unit

Total number of grid points                  ...   276063
Total number of batches                      ...     4345
Average number of points per batch           ...       63
Average number of grid points per atom       ...     4526
Initializing property integral containers    ... done (  0.0 sec)

SHARK setup successfully completed in   4.5 seconds

Maximum memory used throughout the entire STARTUP-calculation: 121.7 MB
Occupation numbers will be reassigned to an Aufbau configuration
             **** ENERGY FILE WAS UPDATED (monomer_hf_opt.en.tmp) ****
Finished Guess after   0.2 sec
Maximum memory used throughout the entire GUESS-calculation: 46.2 MB
----------------------------------------D-I-I-S--------------------------------------------
Iteration    Energy (Eh)           Delta-E    RMSDP     MaxDP     DIISErr   Damp  Time(sec)
-------------------------------------------------------------------------------------------
               ***  Starting incremental Fock matrix formation  ***
    1    -1466.5843309292527010     0.00e+00  3.41e-05  1.27e-03  1.02e-02  0.700  51.5
    2    -1466.5847435759019390    -4.13e-04  3.14e-05  1.16e-03  8.37e-03  0.700  36.8
                               ***Turning on AO-DIIS***
    3    -1466.5850908540310229    -3.47e-04  3.27e-05  1.18e-03  6.67e-03  0.700  36.4
    4    -1466.5853685020206285    -2.78e-04  9.21e-05  3.16e-03  4.93e-03  0.000  36.2
                              *** Initializing SOSCF ***
---------------------------------------S-O-S-C-F--------------------------------------
Iteration    Energy (Eh)           Delta-E    RMSDP     MaxDP     MaxGrad    Time(sec)
--------------------------------------------------------------------------------------
    5    -1466.5862220243830052    -8.54e-04  1.25e-05  3.87e-04  5.66e-04    39.0
               *** Restarting incremental Fock matrix formation ***
    6    -1466.5862282587645495    -6.23e-06  6.45e-06  2.06e-04  1.39e-04    51.5
    7    -1466.5862297750068137    -1.52e-06  5.57e-06  2.13e-04  7.36e-05    30.9
    8    -1466.5862303002099907    -5.25e-07  8.24e-07  4.00e-05  1.66e-05    30.1
    9    -1466.5862303116041403    -1.14e-08  7.18e-07  3.84e-05  9.34e-06    24.7
   10    -1466.5862303161161435    -4.51e-09  1.20e-07  5.13e-06  2.45e-06    24.1
                 **** Energy Check signals convergence ****

               *****************************************************
               *                     SUCCESS                       *
               *           SCF CONVERGED AFTER  10 CYCLES          *
               *****************************************************

             **** ENERGY FILE WAS UPDATED (monomer_hf_opt.en.tmp) ****

----------------
TOTAL SCF ENERGY
----------------

Total Energy       :      -1466.58623031611614 Eh          -39907.84020 eV

Components:
Nuclear Repulsion  :       3223.16976931442377 Eh           87706.90836 eV
Electronic Energy  :      -4689.75599963053992 Eh         -127614.74856 eV
One Electron Energy:      -8421.09707212973626 Eh         -229149.70108 eV
Two Electron Energy:       3731.34107249919634 Eh          101534.95252 eV

Virial components:
Potential Energy   :      -2933.26023318244279 Eh          -79818.06882 eV
Kinetic Energy     :       1466.67400286632642 Eh           39910.22861 eV
Virial Ratio       :          1.99994015537874

---------------
SCF CONVERGENCE
---------------

  Last Energy change         ...    4.5120e-09  Tolerance :   1.0000e-08
  Last MAX-Density change    ...    5.1286e-06  Tolerance :   1.0000e-07
  Last RMS-Density change    ...    1.1958e-07  Tolerance :   5.0000e-09
  Last DIIS Error            ...    5.6555e-04  Tolerance :   5.0000e-07
  Last Orbital Gradient      ...    2.4508e-06  Tolerance :   1.0000e-05
  Last Orbital Rotation      ...    5.8025e-06  Tolerance :   1.0000e-05


Total SCF time: 0 days 0 hours 6 min 1 sec 
Finished LeanSCF after 361.3 sec

Maximum memory used throughout the entire LEANSCF-calculation: 48.7 MB

-------------------------   --------------------
FINAL SINGLE POINT ENERGY     -1466.586230316116
-------------------------   --------------------

------------------------------------------------------------------------------
                         ORCA SCF GRADIENT CALCULATION
------------------------------------------------------------------------------

Nuc. rep. gradient        (SHARK) ... done (  0.0 sec)
HCore & Overlap gradient  (SHARK) ... done (  3.0 sec)
Two-electron gradient     (SHARK) ... done (179.5 sec)

------------------
CARTESIAN GRADIENT
------------------

   1   O   :    0.000006622   -0.000042466    0.000604167
   2   C   :   -0.000287101    0.000371348   -0.001627468
   3   C   :    0.000129674   -0.000146909    0.000498646
   4   H   :   -0.000103320   -0.000133642    0.000050453
   5   C   :    0.000001538    0.000038760   -0.000053869
   6   C   :    0.000040937    0.000126274    0.000030368
   7   C   :    0.000082705   -0.000083909   -0.000026858
   8   C   :   -0.000080793    0.000080319    0.000174141
   9   C   :   -0.000000545   -0.000025374    0.000134456
  10   C   :    0.000138527    0.000164670   -0.000006729
  11   C   :   -0.000140913   -0.000040305    0.000026190
  12   C   :    0.000261806    0.000077877   -0.000016996
  13   H   :    0.000028536    0.000000991    0.000006211
  14   N   :   -0.000149389    0.000280376    0.000219980
  15   C   :    0.000094660   -0.000417802    0.000155286
  16   C   :   -0.000150952    0.000316670    0.000237616
  17   C   :   -0.000095661   -0.000176452   -0.000044064
  18   C   :    0.000398835    0.000130446   -0.000108392
  19   O   :   -0.000151664   -0.000183465    0.000188923
  20   C   :    0.000083085    0.000103738   -0.000195173
  21   C   :    0.000039308    0.000033117    0.000101239
  22   O   :    0.000249209    0.000073867    0.000104854
  23   C   :    0.000142729    0.000045649   -0.000051398
  24   C   :   -0.000073328   -0.000152269    0.000181838
  25   O   :    0.000332445    0.000053769   -0.000143330
  26   O   :   -0.000196090    0.000048728    0.000106840
  27   C   :    0.000255918    0.000043337    0.000000461
  28   O   :   -0.000051982   -0.000234040    0.000217596
  29   C   :   -0.000026810   -0.000087114   -0.000122669
  30   O   :   -0.000018926   -0.000275590    0.000148617
  31   C   :    0.000129929   -0.000058261   -0.000037323
  32   O   :    0.000169566   -0.000075523   -0.000084411
  33   H   :   -0.000020348   -0.000000280    0.000036336
  34   H   :    0.000008322    0.000092821   -0.000049938
  35   H   :   -0.000027340   -0.000090561   -0.000074717
  36   H   :    0.000083869   -0.000089276   -0.000072547
  37   H   :   -0.000047715   -0.000045360   -0.000032529
  38   H   :   -0.000034905    0.000001025   -0.000012380
  39   H   :    0.000011321    0.000006467    0.000014650
  40   H   :    0.000065724    0.000030184   -0.000003026
  41   H   :   -0.000076622    0.000005222    0.000016410
  42   H   :   -0.000106188   -0.000094857   -0.000022763
  43   H   :   -0.000059027   -0.000011498    0.000011563
  44   H   :    0.000134737    0.000070334   -0.000018158
  45   H   :   -0.000058521   -0.000033047   -0.000095396
  46   H   :    0.000026806   -0.000063368    0.000014038
  47   H   :   -0.000016674    0.000052545    0.000024908
  48   H   :    0.000040219   -0.000001696    0.000001840
  49   H   :   -0.000017011    0.000101868    0.000011546
  50   H   :   -0.000170308   -0.000251379    0.000085975
  51   H   :   -0.000054853   -0.000016040    0.000037649
  52   H   :   -0.000007889    0.000072717   -0.000047461
  53   H   :   -0.000343633   -0.000146729   -0.000175531
  54   H   :   -0.000045891   -0.000012489   -0.000017984
  55   H   :    0.000017325   -0.000057879   -0.000054323
  56   H   :    0.000045306    0.000066025   -0.000028270
  57   H   :   -0.000308620    0.000053755    0.000112989
  58   H   :    0.000007835   -0.000070699    0.000017463
  59   H   :   -0.000079167    0.000219675   -0.000260720
  60   H   :   -0.000006064    0.000033557    0.000050014
  61   H   :   -0.000019242    0.000322146   -0.000138841

Difference to translation invariance:
           :    0.0000000000    0.0000000000   -0.0000000000

Difference to rotation invariance:
           :    0.0000009593   -0.0000024098    0.0000033053

Norm of the Cartesian gradient     ...    0.0024994911
RMS gradient                       ...    0.0001847677
MAX gradient                       ...    0.0016274677

-------
TIMINGS
-------

Total SCF gradient time     ....      182.497 sec

Densities                   ....       0.005 sec  (  0.0%)
One electron gradient       ....       2.972 sec  (  1.6%)
Two electron gradient       ....     179.520 sec  ( 98.4%)

Maximum memory used throughout the entire SCFGRAD-calculation: 105.8 MB
------------------------------------------------------------------------------
                         ORCA GEOMETRY RELAXATION STEP
------------------------------------------------------------------------------

Reading the OPT-File                    .... done
Getting information on internals        .... done
Copying old internal coords+grads       .... done
Making the new internal coordinates     .... (2022 redundants) done
Validating the new internal coordinates .... (2022 redundants) done
Calculating the B-matrix                .... done
Calculating the G,G- and P matrices     .... done
Transforming gradient to internals      .... done
Projecting the internal gradient        .... done
Number of atoms                         ....  61
Number of internal coordinates          .... 327
Current Energy                          .... -1466.586230316 Eh
Current gradient norm                   ....     0.002499491 Eh/bohr
Maximum allowed component of the step   ....  0.300
Current trust radius                    ....  0.450
Updating the Hessian (BFGS)             .... done
Forming the augmented Hessian           .... done
Diagonalizing the augmented Hessian     .... done
Last element of RFO vector              ....  0.996713589
Lowest eigenvalues of augmented Hessian:
 -0.000043408  0.001213691  0.003711798  0.011707139  0.012407537
Length of the computed step             ....  0.081273403
The final length of the internal step   ....  0.081273403
Converting the step to Cartesian space:
 Initial RMS(Int)=    0.0044944294
Transforming coordinates:
 Iter   0:  RMS(Cart)=    0.0328225744 RMS(Int)=    0.0044564759
done
Storing new coordinates                 .... done
The predicted energy change is          ....    -0.000021847
Previously predicted energy change      ....    -0.000028677
Actually observed energy change         ....    -0.000027769
Ratio of predicted to observed change   ....     0.968343958
New trust radius                        ....     0.675000000

                                .--------------------.
          ----------------------|Geometry convergence|-------------------------
          Item                value                   Tolerance       Converged
          ---------------------------------------------------------------------
          Energy change      -0.0000277690            0.0000050000      NO
          RMS gradient        0.0000917980            0.0001000000      YES
          MAX gradient        0.0003638797            0.0003000000      NO
          RMS step            0.0044944294            0.0020000000      NO
          MAX step            0.0268400446            0.0040000000      NO
          ........................................................
          Max(Bonds)      0.0142      Max(Angles)    0.13
          Max(Dihed)        0.92      Max(Improp)    0.00
          ---------------------------------------------------------------------

The optimization has not yet converged - more geometry cycles are needed


    ---------------------------------------------------------------------------
                         Redundant Internal Coordinates
                            (Angstroem and degrees)

        Definition                    Value    dE/dq     Step     New-Value
    ----------------------------------------------------------------------------
     1. B(C   1,O   0)                1.1906  0.000053  0.0000    1.1907   
     2. B(C   2,C   1)                1.5130  0.000011 -0.0001    1.5129   
     3. B(H   3,C   2)                1.0839  0.000090 -0.0000    1.0839   
     4. B(C   4,C   2)                1.5357  0.000005  0.0001    1.5358   
     5. B(C   5,C   4)                1.5601 -0.000067  0.0002    1.5603   
     6. B(C   6,C   5)                1.5093  0.000045  0.0001    1.5093   
     7. B(C   7,C   6)                1.3187  0.000034 -0.0000    1.3187   
     8. B(C   8,C   5)                1.5435  0.000080 -0.0002    1.5433   
     9. B(C   9,C   8)                1.5348  0.000046 -0.0000    1.5348   
    10. B(C   9,C   2)                1.5505 -0.000140  0.0001    1.5506   
    11. B(C  10,C   9)                1.5063 -0.000013  0.0001    1.5064   
    12. B(C  11,C  10)                1.3188 -0.000069  0.0000    1.3188   
    13. B(H  12,C   4)                1.0828  0.000003 -0.0000    1.0828   
    14. B(N  13,C   1)                1.3831  0.000035 -0.0002    1.3829   
    15. B(C  14,N  13)                1.4653 -0.000174  0.0006    1.4659   
    16. B(C  15,C  14)                1.5294 -0.000132  0.0002    1.5296   
    17. B(C  16,C  15)                1.5327  0.000071  0.0000    1.5328   
    18. B(C  17,C  16)                1.5204  0.000108  0.0002    1.5206   
    19. B(O  18,C  17)                1.4072 -0.000122  0.0005    1.4078   
    20. B(C  19,O  18)                1.4027 -0.000089  0.0003    1.4030   
    21. B(C  20,C  19)                1.5263  0.000006 -0.0001    1.5262   
    22. B(O  21,C  20)                1.4036 -0.000021  0.0002    1.4038   
    23. B(C  22,C  20)                1.5365 -0.000050 -0.0001    1.5364   
    24. B(C  23,C  22)                1.5251  0.000038 -0.0001    1.5250   
    25. B(O  24,C  23)                1.3948 -0.000093  0.0002    1.3950   
    26. B(O  25,C  22)                1.4057 -0.000113  0.0003    1.4059   
    27. B(C  26,O  25)                1.3848  0.000043  0.0001    1.3849   
    28. B(O  27,C  26)                1.3772 -0.000064  0.0002    1.3775   
    29. B(C  28,C  26)                1.5207  0.000072 -0.0000    1.5207   
    30. B(C  28,C  19)                1.5209  0.000002  0.0000    1.5209   
    31. B(O  29,C  28)                1.4024  0.000014 -0.0002    1.4022   
    32. B(C  30,N  13)                1.3761  0.000094  0.0001    1.3761   
    33. B(C  30,C   4)                1.5147 -0.000023  0.0001    1.5148   
    34. B(O  31,C  30)                1.1964  0.000129 -0.0001    1.1963   
    35. B(H  32,C   5)                1.0825  0.000001 -0.0001    1.0825   
    36. B(H  33,C   6)                1.0791  0.000101 -0.0004    1.0787   
    37. B(H  34,C   7)                1.0753  0.000024 -0.0000    1.0753   
    38. B(H  35,C   7)                1.0764  0.000081 -0.0002    1.0762   
    39. B(H  36,C   8)                1.0866  0.000026 -0.0001    1.0865   
    40. B(H  37,C   8)                1.0838  0.000028 -0.0000    1.0838   
    41. B(H  38,C   9)                1.0882 -0.000004  0.0000    1.0882   
    42. B(H  39,C  10)                1.0783  0.000037 -0.0001    1.0782   
    43. B(H  40,C  11)                1.0753  0.000067 -0.0001    1.0751   
    44. B(H  41,C  11)                1.0756  0.000118 -0.0003    1.0753   
    45. B(H  42,C  14)                1.0760 -0.000037 -0.0000    1.0759   
    46. B(H  43,C  14)                1.0824  0.000017 -0.0001    1.0824   
    47. B(H  44,C  15)                1.0837  0.000008 -0.0000    1.0837   
    48. B(H  45,C  15)                1.0849 -0.000000 -0.0000    1.0848   
    49. B(H  46,C  16)                1.0875 -0.000002 -0.0001    1.0874   
    50. B(H  47,C  16)                1.0864  0.000009 -0.0000    1.0864   
    51. B(H  48,C  17)                1.0883 -0.000033  0.0000    1.0883   
    52. B(H  48,H  34)                3.5199 -0.000000 -0.0142    3.5057   
    53. B(H  49,C  17)                1.0811  0.000304 -0.0009    1.0803   
    54. B(H  50,C  19)                1.0889  0.000029 -0.0001    1.0888   
    55. B(H  51,C  20)                1.0838  0.000039 -0.0001    1.0837   
    56. B(H  52,O  21)                0.9521  0.000342 -0.0004    0.9517   
    57. B(H  52,O  31)                2.1964 -0.000082  0.0105    2.2069   
    58. B(H  53,C  22)                1.0905  0.000038 -0.0001    1.0904   
    59. B(H  54,C  23)                1.0809  0.000060 -0.0001    1.0807   
    60. B(H  55,C  23)                1.0885  0.000064 -0.0002    1.0883   
    61. B(H  56,O  24)                0.9496  0.000315 -0.0005    0.9491   
    62. B(H  56,O  21)                2.1121  0.000040  0.0047    2.1168   
    63. B(H  57,C  26)                1.0918  0.000048 -0.0001    1.0916   
    64. B(H  58,O  27)                0.9502  0.000323 -0.0006    0.9496   
    65. B(H  58,O  29)                2.3660 -0.000030  0.0052    2.3711   
    66. B(H  59,C  28)                1.0863  0.000039 -0.0001    1.0862   
    67. B(H  60,O  29)                0.9485  0.000302 -0.0005    0.9480   
    68. A(O   0,C   1,N  13)          124.42  0.000181   -0.03    124.39   
    69. A(O   0,C   1,C   2)          126.91 -0.000031   -0.02    126.89   
    70. A(C   2,C   1,N  13)          108.66 -0.000160    0.04    108.70   
    71. A(C   1,C   2,H   3)          107.65  0.000068   -0.09    107.56   
    72. A(H   3,C   2,C   4)          112.26 -0.000057   -0.01    112.25   
    73. A(H   3,C   2,C   9)          110.38 -0.000041    0.04    110.42   
    74. A(C   1,C   2,C   9)          114.96 -0.000147    0.08    115.04   
    75. A(C   4,C   2,C   9)          107.00  0.000080    0.01    107.01   
    76. A(C   1,C   2,C   4)          104.55  0.000099   -0.03    104.51   
    77. A(H  12,C   4,C  30)          107.14 -0.000080    0.02    107.16   
    78. A(C   2,C   4,H  12)          112.35 -0.000027    0.03    112.38   
    79. A(C   5,C   4,C  30)          117.04  0.000121    0.00    117.05   
    80. A(C   2,C   4,C   5)          106.77  0.000005   -0.05    106.72   
    81. A(C   2,C   4,C  30)          104.69  0.000001   -0.01    104.67   
    82. A(C   5,C   4,H  12)          108.91 -0.000020    0.00    108.92   
    83. A(C   6,C   5,C   8)          111.65  0.000048   -0.08    111.57   
    84. A(C   4,C   5,C   8)          101.49 -0.000062   -0.04    101.45   
    85. A(C   6,C   5,H  32)          107.89 -0.000049    0.01    107.90   
    86. A(C   4,C   5,H  32)          109.48 -0.000010    0.03    109.50   
    87. A(C   4,C   5,C   6)          115.19  0.000125    0.04    115.23   
    88. A(C   8,C   5,H  32)          111.08 -0.000055    0.05    111.13   
    89. A(C   5,C   6,C   7)          124.37 -0.000161   -0.08    124.28   
    90. A(C   5,C   6,H  33)          117.02  0.000110    0.03    117.05   
    91. A(C   7,C   6,H  33)          118.59  0.000049    0.05    118.64   
    92. A(C   6,C   7,H  35)          121.95  0.000090   -0.06    121.89   
    93. A(C   6,C   7,H  34)          121.59  0.000052    0.08    121.67   
    94. A(H  34,C   7,H  35)          116.46 -0.000141   -0.02    116.44   
    95. A(C   9,C   8,H  36)          109.59 -0.000034    0.01    109.60   
    96. A(C   5,C   8,H  36)          109.13  0.000007    0.01    109.14   
    97. A(H  36,C   8,H  37)          107.75 -0.000001    0.01    107.76   
    98. A(C   5,C   8,C   9)          104.87  0.000047   -0.02    104.84   
    99. A(C   5,C   8,H  37)          112.42 -0.000006   -0.01    112.41   
   100. A(C   9,C   8,H  37)          113.02 -0.000013    0.00    113.02   
   101. A(C   2,C   9,C  10)          112.98  0.000028    0.01    112.99   
   102. A(C  10,C   9,H  38)          106.69  0.000022    0.00    106.69   
   103. A(C   2,C   9,C   8)          102.60 -0.000081    0.01    102.61   
   104. A(C   8,C   9,H  38)          108.57  0.000032   -0.01    108.57   
   105. A(C   2,C   9,H  38)          108.12 -0.000002   -0.03    108.09   
   106. A(C   8,C   9,C  10)          117.55  0.000000    0.00    117.55   
   107. A(C   9,C  10,H  39)          114.20 -0.000074    0.01    114.21   
   108. A(C  11,C  10,H  39)          119.16  0.000052   -0.02    119.15   
   109. A(C   9,C  10,C  11)          126.63  0.000022    0.01    126.64   
   110. A(H  40,C  11,H  41)          116.19 -0.000083    0.01    116.20   
   111. A(C  10,C  11,H  41)          122.89  0.000084   -0.01    122.88   
   112. A(C  10,C  11,H  40)          120.92 -0.000001   -0.00    120.91   
   113. A(C   1,N  13,C  30)          113.19  0.000139   -0.05    113.14   
   114. A(C   1,N  13,C  14)          122.41  0.000222   -0.07    122.34   
   115. A(C  14,N  13,C  30)          123.74 -0.000364    0.12    123.87   
   116. A(N  13,C  14,C  15)          115.45 -0.000267    0.05    115.50   
   117. A(H  42,C  14,H  43)          107.93 -0.000038    0.00    107.93   
   118. A(C  15,C  14,H  43)          108.49 -0.000041   -0.00    108.49   
   119. A(N  13,C  14,H  43)          107.13  0.000196   -0.10    107.03   
   120. A(C  15,C  14,H  42)          110.83  0.000124    0.03    110.86   
   121. A(N  13,C  14,H  42)          106.72  0.000040    0.01    106.73   
   122. A(H  44,C  15,H  45)          106.96  0.000048   -0.02    106.93   
   123. A(C  14,C  15,C  16)          117.08 -0.000190    0.06    117.14   
   124. A(C  16,C  15,H  45)          108.85  0.000017   -0.03    108.83   
   125. A(C  14,C  15,H  45)          105.76  0.000025    0.05    105.81   
   126. A(C  16,C  15,H  44)          108.46 -0.000001    0.02    108.47   
   127. A(C  14,C  15,H  44)          109.28  0.000120   -0.09    109.19   
   128. A(C  17,C  16,H  47)          109.17 -0.000083    0.02    109.20   
   129. A(H  46,C  16,H  47)          106.18  0.000027   -0.00    106.18   
   130. A(C  15,C  16,H  47)          107.77 -0.000063    0.03    107.81   
   131. A(C  17,C  16,H  46)          107.13  0.000009   -0.06    107.07   
   132. A(C  15,C  16,H  46)          110.13 -0.000064   -0.00    110.13   
   133. A(C  15,C  16,C  17)          116.03  0.000164    0.00    116.03   
   134. A(C  16,C  17,O  18)          110.17 -0.000006    0.05    110.21   
   135. A(O  18,C  17,H  49)          109.81  0.000150   -0.02    109.78   
   136. A(C  16,C  17,H  49)          110.45  0.000045   -0.04    110.41   
   137. A(O  18,C  17,H  48)          109.76  0.000038   -0.09    109.67   
   138. A(C  16,C  17,H  48)          109.41 -0.000171    0.04    109.45   
   139. A(H  48,C  17,H  49)          107.19 -0.000059    0.06    107.26   
   140. A(C  17,O  18,C  19)          115.64  0.000234   -0.05    115.59   
   141. A(O  18,C  19,C  20)          111.90 -0.000082    0.13    112.03   
   142. A(C  28,C  19,H  50)          108.19 -0.000009   -0.04    108.15   
   143. A(C  20,C  19,H  50)          108.98  0.000027    0.02    109.00   
   144. A(O  18,C  19,H  50)          109.57  0.000013   -0.01    109.56   
   145. A(C  20,C  19,C  28)          108.94 -0.000001   -0.05    108.89   
   146. A(O  18,C  19,C  28)          109.19  0.000054   -0.06    109.13   
   147. A(O  21,C  20,C  22)          111.47 -0.000046    0.05    111.51   
   148. A(C  19,C  20,C  22)          109.27  0.000029   -0.04    109.23   
   149. A(C  19,C  20,O  21)          113.79 -0.000012    0.06    113.85   
   150. A(O  21,C  20,H  51)          105.63  0.000045   -0.04    105.59   
   151. A(C  19,C  20,H  51)          108.31 -0.000060    0.00    108.31   
   152. A(C  22,C  20,H  51)          108.13  0.000046   -0.03    108.10   
   153. A(C  20,O  21,H  52)          113.32 -0.000082   -0.03    113.29   
   154. A(O  25,C  22,H  53)          110.19  0.000018   -0.01    110.18   
   155. A(C  23,C  22,H  53)          108.08  0.000013   -0.01    108.07   
   156. A(C  20,C  22,H  53)          109.27 -0.000024    0.03    109.30   
   157. A(C  23,C  22,O  25)          106.59  0.000016    0.03    106.61   
   158. A(C  20,C  22,O  25)          109.25 -0.000008   -0.03    109.21   
   159. A(C  20,C  22,C  23)          113.43 -0.000013   -0.00    113.43   
   160. A(H  54,C  23,H  55)          107.67 -0.000013    0.01    107.68   
   161. A(C  22,C  23,H  55)          109.23 -0.000071    0.03    109.25   
   162. A(O  24,C  23,H  54)          107.28  0.000013   -0.01    107.26   
   163. A(C  22,C  23,H  54)          108.17 -0.000058    0.04    108.20   
   164. A(O  24,C  23,H  55)          111.74  0.000065   -0.01    111.73   
   165. A(C  22,C  23,O  24)          112.57  0.000059   -0.05    112.52   
   166. A(C  23,O  24,H  56)          108.62  0.000250   -0.07    108.54   
   167. A(C  22,O  25,C  26)          114.65  0.000065   -0.00    114.65   
   168. A(C  28,C  26,H  57)          109.41  0.000037   -0.02    109.39   
   169. A(O  27,C  26,H  57)          110.39 -0.000022    0.01    110.41   
   170. A(O  25,C  26,H  57)          109.73 -0.000015    0.01    109.74   
   171. A(O  27,C  26,C  28)          111.50 -0.000029    0.01    111.51   
   172. A(O  25,C  26,C  28)          109.14 -0.000053    0.07    109.20   
   173. A(O  25,C  26,O  27)          106.61  0.000082   -0.07    106.54   
   174. A(C  26,O  27,H  58)          107.99  0.000065   -0.01    107.98   
   175. A(O  29,C  28,H  59)          110.46  0.000036    0.01    110.47   
   176. A(C  26,C  28,H  59)          107.51 -0.000042    0.03    107.54   
   177. A(C  19,C  28,H  59)          109.20 -0.000015    0.01    109.21   
   178. A(C  26,C  28,O  29)          107.46  0.000047   -0.04    107.42   
   179. A(C  19,C  28,O  29)          111.84 -0.000010   -0.03    111.81   
   180. A(C  19,C  28,C  26)          110.27 -0.000016    0.01    110.28   
   181. A(C  28,O  29,H  60)          108.82  0.000142   -0.05    108.77   
   182. A(N  13,C  30,O  31)          125.25  0.000063   -0.03    125.23   
   183. A(C   4,C  30,O  31)          126.13  0.000025    0.01    126.14   
   184. A(C   4,C  30,N  13)          108.61 -0.000090    0.01    108.62   
   185. D(C   9,C   2,C   1,O   0)     60.91  0.000165   -0.65     60.26   
   186. D(H   3,C   2,C   1,N  13)    116.38 -0.000272   -0.10    116.28   
   187. D(H   3,C   2,C   1,O   0)    -62.54  0.000268   -0.69    -63.23   
   188. D(C   4,C   2,C   1,N  13)     -3.18 -0.000290   -0.02     -3.20   
   189. D(C   4,C   2,C   1,O   0)    177.91  0.000250   -0.61    177.29   
   190. D(C   5,C   4,C   2,H   3)    123.94 -0.000067    0.40    124.34   
   191. D(H  12,C   4,C   2,H   3)      4.60 -0.000030    0.41      5.01   
   192. D(C   5,C   4,C   2,C   1)   -119.66  0.000044    0.27   -119.39   
   193. D(H  12,C   4,C   2,C   1)    121.00  0.000081    0.28    121.28   
   194. D(H  12,C   4,C   2,C   9)   -116.64  0.000002    0.36   -116.28   
   195. D(C   5,C   4,C   2,C   9)      2.69 -0.000035    0.35      3.05   
   196. D(C   6,C   5,C   4,C  30)    -22.27  0.000037   -0.39    -22.66   
   197. D(C   8,C   5,C   4,C  30)   -143.04 -0.000044   -0.29   -143.33   
   198. D(C   8,C   5,C   4,C   2)    -26.23  0.000033   -0.33    -26.56   
   199. D(C   6,C   5,C   4,C   2)     94.55  0.000115   -0.44     94.11   
   200. D(C   6,C   5,C   4,H  12)   -143.91  0.000074   -0.43   -144.34   
   201. D(C   8,C   5,C   4,H  12)     95.31 -0.000008   -0.32     94.99   
   202. D(C   7,C   6,C   5,C   8)   -127.03  0.000043   -0.07   -127.10   
   203. D(H  33,C   6,C   5,C   4)    -63.91 -0.000041    0.06    -63.86   
   204. D(C   7,C   6,C   5,C   4)    117.92  0.000007    0.01    117.92   
   205. D(C   7,C   6,C   5,H  32)     -4.70 -0.000028   -0.06     -4.76   
   206. D(H  33,C   6,C   5,C   8)     51.14 -0.000005   -0.03     51.11   
   207. D(H  35,C   7,C   6,C   5)     -1.74 -0.000049   -0.01     -1.75   
   208. D(H  34,C   7,C   6,H  33)      0.06 -0.000037    0.02      0.07   
   209. D(H  34,C   7,C   6,C   5)    178.20 -0.000085    0.06    178.27   
   210. D(H  35,C   7,C   6,H  33)   -179.89 -0.000001   -0.06   -179.94   
   211. D(H  36,C   8,C   5,C   4)    -76.60  0.000018    0.19    -76.41   
   212. D(H  36,C   8,C   5,C   6)    160.18 -0.000117    0.20    160.38   
   213. D(C   9,C   8,C   5,H  32)    157.03 -0.000060    0.22    157.25   
   214. D(C   9,C   8,C   5,C   6)    -82.49 -0.000128    0.21    -82.28   
   215. D(C   9,C   8,C   5,C   4)     40.74  0.000007    0.19     40.93   
   216. D(H  36,C   8,C   5,H  32)     39.69 -0.000049    0.21     39.91   
   217. D(C  10,C   9,C   8,H  37)     73.24 -0.000010    0.01     73.26   
   218. D(C  10,C   9,C   8,C   5)   -163.97  0.000006   -0.01   -163.98   
   219. D(C   2,C   9,C   8,H  37)   -162.16 -0.000038    0.04   -162.12   
   220. D(C   2,C   9,C   8,H  36)     77.65 -0.000005    0.02     77.67   
   221. D(C   2,C   9,C   8,C   5)    -39.38 -0.000022    0.02    -39.36   
   222. D(C  10,C   9,C   2,C   4)    149.73 -0.000009   -0.21    149.52   
   223. D(C  10,C   9,C   2,C   1)    -94.67  0.000084   -0.20    -94.87   
   224. D(C   8,C   9,C   2,C   4)     22.18  0.000031   -0.23     21.95   
   225. D(C   8,C   9,C   2,H   3)   -100.25  0.000075   -0.24   -100.49   
   226. D(C  10,C   9,C   8,H  36)    -46.94  0.000023   -0.01    -46.95   
   227. D(C   8,C   9,C   2,C   1)    137.77  0.000124   -0.22    137.55   
   228. D(C  10,C   9,C   2,H   3)     27.31  0.000035   -0.23     27.08   
   229. D(H  39,C  10,C   9,C   8)    174.81 -0.000043    0.07    174.88   
   230. D(H  39,C  10,C   9,C   2)     55.57  0.000045    0.04     55.62   
   231. D(C  11,C  10,C   9,H  38)    116.06  0.000012    0.08    116.14   
   232. D(C  11,C  10,C   9,C   8)     -6.04 -0.000048    0.08     -5.95   
   233. D(C  11,C  10,C   9,C   2)   -125.27  0.000040    0.05   -125.22   
   234. D(H  41,C  11,C  10,H  39)    179.31 -0.000002   -0.01    179.30   
   235. D(H  41,C  11,C  10,C   9)      0.19  0.000005   -0.02      0.17   
   236. D(H  40,C  11,C  10,H  39)     -0.33 -0.000002    0.00     -0.33   
   237. D(H  40,C  11,C  10,C   9)   -179.44  0.000004   -0.01   -179.45   
   238. D(C  30,N  13,C   1,C   2)     -0.28  0.000298   -0.24     -0.52   
   239. D(C  30,N  13,C   1,O   0)    178.67 -0.000228    0.32    178.99   
   240. D(C  14,N  13,C   1,C   2)   -171.38  0.000351   -0.27   -171.65   
   241. D(C  14,N  13,C   1,O   0)      7.58 -0.000175    0.29      7.87   
   242. D(H  43,C  14,N  13,C   1)     47.28 -0.000050   -0.68     46.60   
   243. D(H  42,C  14,N  13,C  30)     -7.47  0.000026   -0.73     -8.20   
   244. D(H  42,C  14,N  13,C   1)    162.68  0.000020   -0.71    161.96   
   245. D(C  15,C  14,N  13,C  30)    116.18  0.000037   -0.65    115.54   
   246. D(C  15,C  14,N  13,C   1)    -73.67  0.000031   -0.63    -74.30   
   247. D(C  16,C  15,C  14,N  13)    -55.33  0.000023   -0.42    -55.76   
   248. D(H  44,C  15,C  14,H  43)    -51.79 -0.000066   -0.32    -52.12   
   249. D(H  44,C  15,C  14,H  42)   -170.12 -0.000067   -0.34   -170.46   
   250. D(H  44,C  15,C  14,N  13)     68.41 -0.000022   -0.42     67.99   
   251. D(C  16,C  15,C  14,H  43)   -175.54 -0.000021   -0.33   -175.87   
   252. D(C  16,C  15,C  14,H  42)     66.13 -0.000022   -0.35     65.79   
   253. D(H  46,C  16,C  15,H  45)   -166.54 -0.000016   -0.20   -166.74   
   254. D(H  46,C  16,C  15,H  44)    -50.51  0.000050   -0.23    -50.74   
   255. D(H  46,C  16,C  15,C  14)     73.66  0.000068   -0.29     73.37   
   256. D(C  17,C  16,C  15,H  45)     71.58 -0.000097   -0.13     71.45   
   257. D(C  17,C  16,C  15,H  44)   -172.39 -0.000031   -0.16   -172.55   
   258. D(C  17,C  16,C  15,C  14)    -48.22 -0.000013   -0.21    -48.43   
   259. D(H  48,C  17,C  16,H  47)    -51.96  0.000041    0.05    -51.91   
   260. D(H  48,C  17,C  16,H  46)     62.61  0.000037    0.03     62.64   
   261. D(H  48,C  17,C  16,C  15)   -173.93  0.000073   -0.01   -173.94   
   262. D(O  18,C  17,C  16,H  47)     68.79 -0.000024   -0.00     68.79   
   263. D(O  18,C  17,C  16,H  46)   -176.64 -0.000028   -0.02   -176.66   
   264. D(O  18,C  17,C  16,C  15)    -53.18  0.000009   -0.07    -53.25   
   265. D(C  19,O  18,C  17,H  49)     47.76  0.000017   -0.15     47.62   
   266. D(C  19,O  18,C  17,H  48)    -69.83 -0.000023   -0.16    -69.99   
   267. D(C  19,O  18,C  17,C  16)    169.63  0.000168   -0.18    169.45   
   268. D(H  50,C  19,O  18,C  17)      2.62 -0.000103    0.92      3.55   
   269. D(C  28,C  19,O  18,C  17)    120.95 -0.000075    0.83    121.78   
   270. D(C  20,C  19,O  18,C  17)   -118.37 -0.000092    0.82   -117.55   
   271. D(C  22,C  20,C  19,H  50)     63.73  0.000009   -0.25     63.49   
   272. D(C  22,C  20,C  19,C  28)    -54.11  0.000005   -0.18    -54.29   
   273. D(C  22,C  20,C  19,O  18)   -174.93 -0.000010   -0.16   -175.10   
   274. D(O  21,C  20,C  19,H  50)    -61.57  0.000055   -0.32    -61.88   
   275. D(O  21,C  20,C  19,C  28)   -179.41  0.000052   -0.25   -179.66   
   276. D(O  21,C  20,C  19,O  18)     59.77  0.000037   -0.24     59.53   
   277. D(H  52,O  21,C  20,H  51)    154.91 -0.000053    0.32    155.22   
   278. D(H  52,O  21,C  20,C  22)    -87.88  0.000004    0.28    -87.61   
   279. D(H  52,O  21,C  20,C  19)     36.24 -0.000003    0.31     36.54   
   280. D(O  25,C  22,C  20,H  51)    -61.20 -0.000001    0.22    -60.98   
   281. D(O  25,C  22,C  20,O  21)   -176.89 -0.000057    0.27   -176.62   
   282. D(O  25,C  22,C  20,C  19)     56.48 -0.000030    0.19     56.67   
   283. D(C  23,C  22,C  20,H  51)     57.54  0.000006    0.23     57.77   
   284. D(C  23,C  22,C  20,O  21)    -58.15 -0.000051    0.27    -57.87   
   285. D(C  23,C  22,C  20,C  19)    175.22 -0.000024    0.20    175.42   
   286. D(H  54,C  23,C  22,H  53)     68.43  0.000008    0.24     68.68   
   287. D(H  54,C  23,C  22,O  25)    -49.99 -0.000028    0.25    -49.74   
   288. D(H  54,C  23,C  22,C  20)   -170.25 -0.000022    0.27   -169.98   
   289. D(O  24,C  23,C  22,H  53)    -49.91 -0.000005    0.26    -49.65   
   290. D(O  24,C  23,C  22,O  25)   -168.34 -0.000041    0.27   -168.07   
   291. D(O  24,C  23,C  22,C  20)     71.40 -0.000035    0.29     71.69   
   292. D(H  56,O  24,C  23,H  55)     67.96  0.000019   -0.69     67.27   
   293. D(H  56,O  24,C  23,H  54)   -174.25  0.000048   -0.70   -174.95   
   294. D(H  56,O  24,C  23,C  22)    -55.38  0.000019   -0.68    -56.06   
   295. D(C  26,O  25,C  22,H  53)     57.39 -0.000029    0.01     57.40   
   296. D(C  26,O  25,C  22,C  23)    174.42  0.000005    0.00    174.43   
   297. D(C  26,O  25,C  22,C  20)    -62.66 -0.000006   -0.00    -62.66   
   298. D(H  57,C  26,O  25,C  22)    -57.17  0.000010   -0.15    -57.32   
   299. D(C  28,C  26,O  25,C  22)     62.71  0.000013   -0.13     62.58   
   300. D(O  27,C  26,O  25,C  22)   -176.73 -0.000003   -0.13   -176.85   
   301. D(H  58,O  27,C  26,H  57)     73.94  0.000056   -0.68     73.26   
   302. D(H  58,O  27,C  26,C  28)    -47.91  0.000044   -0.66    -48.57   
   303. D(H  58,O  27,C  26,O  25)   -166.94  0.000074   -0.70   -167.64   
   304. D(C  19,C  28,C  26,O  25)    -57.39  0.000020    0.11    -57.28   
   305. D(O  29,C  28,C  19,H  50)     55.94  0.000017   -0.01     55.93   
   306. D(O  29,C  28,C  19,C  20)    174.28  0.000044   -0.03    174.25   
   307. D(O  29,C  28,C  19,O  18)    -63.25 -0.000023    0.06    -63.18   
   308. D(C  26,C  28,C  19,H  50)    -63.57 -0.000024    0.05    -63.52   
   309. D(C  26,C  28,C  19,C  20)     54.77  0.000002    0.02     54.79   
   310. D(C  19,C  28,C  26,O  27)   -174.91 -0.000030    0.15   -174.75   
   311. D(C  26,C  28,C  19,O  18)    177.24 -0.000065    0.12    177.36   
   312. D(O  29,C  28,C  26,H  57)    -59.45 -0.000015    0.19    -59.25   
   313. D(O  29,C  28,C  26,O  27)     62.96 -0.000037    0.20     63.16   
   314. D(O  29,C  28,C  26,O  25)   -179.52  0.000013    0.16   -179.37   
   315. D(C  19,C  28,C  26,H  57)     62.68 -0.000008    0.15     62.83   
   316. D(H  60,O  29,C  28,H  59)    -53.18  0.000090   -0.86    -54.04   
   317. D(H  60,O  29,C  28,C  26)   -170.18  0.000094   -0.88   -171.06   
   318. D(H  60,O  29,C  28,C  19)     68.67  0.000090   -0.85     67.82   
   319. D(O  31,C  30,N  13,C   1)   -175.33 -0.000108    0.24   -175.08   
   320. D(C   4,C  30,N  13,C  14)    174.69 -0.000168    0.42    175.11   
   321. D(C   4,C  30,N  13,C   1)      3.74 -0.000176    0.41      4.14   
   322. D(O  31,C  30,C   4,C   5)    -68.47 -0.000006   -0.29    -68.76   
   323. D(O  31,C  30,C   4,C   2)    173.58 -0.000082   -0.22    173.36   
   324. D(N  13,C  30,C   4,H  12)   -124.96  0.000054   -0.43   -125.39   
   325. D(N  13,C  30,C   4,C   5)    112.48  0.000062   -0.46    112.02   
   326. D(O  31,C  30,N  13,C  14)     -4.37 -0.000101    0.26     -4.11   
   327. D(N  13,C  30,C   4,C   2)     -5.47 -0.000014   -0.39     -5.86   
    ----------------------------------------------------------------------------

Geometry step timings:
Preparation and reading OPT file:      0.003 s ( 8.551 %)
Internal coordinates            :      0.000 s ( 0.148 %)
B/P matrices and projection     :      0.011 s (38.415 %)
Hessian update/contruction      :      0.004 s (11.988 %)
Making the step                 :      0.007 s (24.447 %)
Converting the step to Cartesian:      0.001 s ( 3.199 %)
Storing new data                :      0.000 s ( 1.183 %)
Checking convergence            :      0.000 s ( 0.175 %)
Final printing                  :      0.004 s (11.888 %)
Total time                      :      0.030 s

Time for energy+gradient        :    548.665 s
Time for complete geometry iter :    548.784 s

         *************************************************************
         *                GEOMETRY OPTIMIZATION CYCLE  10            *
         *************************************************************
---------------------------------
CARTESIAN COORDINATES (ANGSTROEM)
---------------------------------
  O     -2.725630    2.669065    1.782580
  C     -2.523546    1.510674    1.595473
  C     -3.539996    0.391225    1.647488
  H     -3.920605    0.341806    2.661137
  C     -2.747399   -0.866396    1.262104
  C     -3.409876   -1.435951   -0.030480
  C     -2.782849   -0.983653   -1.326825
  C     -2.215532   -1.792763   -2.199993
  C     -4.856177   -0.916595    0.112186
  C     -4.708538    0.518484    0.636141
  C     -5.929484    1.173553    1.227202
  C     -7.153776    0.683601    1.247294
  H     -2.775845   -1.624579    2.034672
  N     -1.284866    0.971459    1.299688
  C     -0.051966    1.762477    1.351112
  C      0.143961    2.750332    0.199942
  C      0.099970    2.182318   -1.223048
  C      0.945543    0.943665   -1.473840
  O      2.275005    1.172470   -1.071448
  C      3.100708    0.038768   -1.035509
  C      3.611341   -0.253136    0.372826
  O      2.591649   -0.482623    1.310000
  C      4.601659   -1.426543    0.318993
  C      5.257250   -1.728657    1.662304
  O      4.371708   -2.309438    2.570353
  O      5.641257   -1.114008   -0.574430
  C      5.238733   -0.927655   -1.886404
  O      6.383140   -0.704336   -2.619749
  C      4.291742    0.260169   -1.955124
  O      3.897249    0.405731   -3.292762
  C     -1.312040   -0.396135    1.149841
  O     -0.353547   -1.090400    0.975266
  H     -3.379517   -2.517730   -0.005682
  H     -2.833191    0.069520   -1.554735
  H     -1.805244   -1.427401   -3.124437
  H     -2.137668   -2.852087   -2.026636
  H     -5.380802   -1.520884    0.847076
  H     -5.409370   -0.973379   -0.818051
  H     -4.378567    1.154207   -0.183151
  H     -5.745721    2.145407    1.656356
  H     -7.963005    1.237058    1.688545
  H     -7.406565   -0.273402    0.827187
  H      0.763618    1.062305    1.398329
  H     -0.069152    2.317084    2.280444
  H     -0.594616    3.539523    0.277624
  H      1.113790    3.207704    0.364613
  H     -0.922671    1.930797   -1.494052
  H      0.408867    2.969751   -1.904780
  H      0.920776    0.696401   -2.533455
  H      0.541841    0.097125   -0.937743
  H      2.548058   -0.826263   -1.398602
  H      4.143738    0.620628    0.729872
  H      1.849133   -0.956524    0.949688
  H      4.078843   -2.324473   -0.011680
  H      6.056623   -2.436729    1.496235
  H      5.700324   -0.816946    2.058499
  H      3.621946   -1.735991    2.669637
  H      4.725263   -1.821743   -2.245030
  H      6.124972   -0.385449   -3.476133
  H      4.841285    1.136461   -1.623569
  H      3.419270    1.219418   -3.383051

----------------------------
CARTESIAN COORDINATES (A.U.)
----------------------------
  NO LB      ZA    FRAG     MASS         X           Y           Z
   0 O     8.0000    0    15.999   -5.150695    5.043801    3.368589
   1 C     6.0000    0    12.011   -4.768810    2.854761    3.015007
   2 C     6.0000    0    12.011   -6.689623    0.739308    3.113301
   3 H     1.0000    0     1.008   -7.408869    0.645920    5.028821
   4 C     6.0000    0    12.011   -5.191831   -1.637250    2.385030
   5 C     6.0000    0    12.011   -6.443733   -2.713555   -0.057599
   6 C     6.0000    0    12.011   -5.258823   -1.858835   -2.507336
   7 C     6.0000    0    12.011   -4.186748   -3.387831   -4.157385
   8 C     6.0000    0    12.011   -9.176844   -1.732113    0.212001
   9 C     6.0000    0    12.011   -8.897847    0.979792    1.202132
  10 C     6.0000    0    12.011  -11.205101    2.217693    2.319076
  11 C     6.0000    0    12.011  -13.518678    1.291818    2.357043
  12 H     1.0000    0     1.008   -5.245587   -3.070009    3.844972
  13 N     7.0000    0    14.007   -2.428045    1.835792    2.456055
  14 C     6.0000    0    12.011   -0.098202    3.330599    2.553232
  15 C     6.0000    0    12.011    0.272046    5.197374    0.377836
  16 C     6.0000    0    12.011    0.188916    4.123984   -2.311225
  17 C     6.0000    0    12.011    1.786818    1.783268   -2.785155
  18 O     8.0000    0    15.999    4.299137    2.215647   -2.024743
  19 C     6.0000    0    12.011    5.859490    0.073260   -1.956829
  20 C     6.0000    0    12.011    6.824445   -0.478357    0.704538
  21 O     8.0000    0    15.999    4.897506   -0.912025    2.475542
  22 C     6.0000    0    12.011    8.695875   -2.695776    0.602809
  23 C     6.0000    0    12.011    9.934763   -3.266688    3.141299
  24 O     8.0000    0    15.999    8.261330   -4.364206    4.857262
  25 O     8.0000    0    15.999   10.660430   -2.105170   -1.085516
  26 C     6.0000    0    12.011    9.899771   -1.753014   -3.564786
  27 O     8.0000    0    15.999   12.062387   -1.331002   -4.950608
  28 C     6.0000    0    12.011    8.110217    0.491649   -3.694650
  29 O     8.0000    0    15.999    7.364734    0.766721   -6.222418
  30 C     6.0000    0    12.011   -2.479397   -0.748586    2.172885
  31 O     8.0000    0    15.999   -0.668106   -2.060558    1.842986
  32 H     1.0000    0     1.008   -6.386361   -4.757821   -0.010737
  33 H     1.0000    0     1.008   -5.353954    0.131374   -2.938024
  34 H     1.0000    0     1.008   -3.411416   -2.697397   -5.904331
  35 H     1.0000    0     1.008   -4.039607   -5.389664   -3.829786
  36 H     1.0000    0     1.008  -10.168243   -2.874054    1.600742
  37 H     1.0000    0     1.008  -10.222229   -1.839419   -1.545893
  38 H     1.0000    0     1.008   -8.274293    2.181135   -0.346104
  39 H     1.0000    0     1.008  -10.857839    4.054232    3.130060
  40 H     1.0000    0     1.008  -15.047899    2.337702    3.190887
  41 H     1.0000    0     1.008  -13.996380   -0.516655    1.563157
  42 H     1.0000    0     1.008    1.443029    2.007466    2.642459
  43 H     1.0000    0     1.008   -0.130678    4.378653    4.309415
  44 H     1.0000    0     1.008   -1.123661    6.688729    0.524633
  45 H     1.0000    0     1.008    2.104758    6.061683    0.689018
  46 H     1.0000    0     1.008   -1.743595    3.648678   -2.823348
  47 H     1.0000    0     1.008    0.772646    5.612017   -3.599513
  48 H     1.0000    0     1.008    1.740015    1.316007   -4.787536
  49 H     1.0000    0     1.008    1.023930    0.183540   -1.772077
  50 H     1.0000    0     1.008    4.815132   -1.561411   -2.642974
  51 H     1.0000    0     1.008    7.830529    1.172817    1.379257
  52 H     1.0000    0     1.008    3.494356   -1.807568    1.794651
  53 H     1.0000    0     1.008    7.707897   -4.392618   -0.022073
  54 H     1.0000    0     1.008   11.445359   -4.604751    2.827475
  55 H     1.0000    0     1.008   10.772052   -1.543804    3.890000
  56 H     1.0000    0     1.008    6.844486   -3.280547    5.044884
  57 H     1.0000    0     1.008    8.929452   -3.442595   -4.242492
  58 H     1.0000    0     1.008   11.574520   -0.728394   -6.568939
  59 H     1.0000    0     1.008    9.148703    2.147600   -3.068101
  60 H     1.0000    0     1.008    6.461484    2.304367   -6.393040

--------------------------------
INTERNAL COORDINATES (ANGSTROEM)
--------------------------------
 O      0   0   0     0.000000000000     0.00000000     0.00000000
 C      1   0   0     1.190678651595     0.00000000     0.00000000
 C      2   1   0     1.512958948543   126.89969007     0.00000000
 H      3   2   1     1.083877430443   107.56597250   296.77154770
 C      3   2   1     1.535689055668   104.51066543   177.29120167
 C      5   3   2     1.560142333785   106.72154314   240.62349800
 C      6   5   3     1.509386199550   115.19959090    94.10517206
 C      7   6   5     1.318685083081   124.30162573   117.91770244
 C      6   5   3     1.543330823096   101.44876198   333.43492219
 C      9   6   5     1.534853513694   104.83605685    40.92632951
 C     10   9   6     1.506379201182   117.55336365   196.02405895
 C     11  10   9     1.318843589933   126.64350914   354.04807353
 H      5   3   2     1.082826223649   112.38319342   121.28401387
 N      2   1   3     1.382956408743   124.39902051   180.55016411
 C     14   2   1     1.465740754231   122.37583293     7.86585969
 C     15  14   2     1.529521605438   115.46082999   285.69765827
 C     16  15  14     1.532799865897   117.11005224   304.27455518
 C     17  16  15     1.520576627638   116.04162788   311.58340330
 O     18  17  16     1.407743002461   110.21971473   306.74859072
 C     19  18  17     1.402981943518   115.58134602   169.44293205
 C     20  19  18     1.526224141147   112.03013322   242.45313875
 O     21  20  19     1.403828281784   113.84493351    59.53074384
 C     21  20  19     1.536396087100   109.23210824   184.90077028
 C     23  21  20     1.524977477484   113.42468576   175.41837151
 O     24  23  21     1.395007244160   112.51741449    71.69242028
 O     23  21  20     1.405932516388   109.21466350    56.66888534
 C     26  23  21     1.384928571542   114.64463956   297.33775215
 O     27  26  23     1.377438088088   106.54046705   183.14345264
 C     27  26  23     1.520671490895   109.20289571    62.57980088
 O     29  27  26     1.402172005536   107.42192958   180.63303514
 C     14   2   1     1.376047088682   113.14802501   179.00128672
 O     31  14   2     1.196324122112   125.22831134   184.91250149
 H      6   5   3     1.082489083622   109.50797822   215.92350680
 H      7   6   5     1.078726568778   117.04102297   296.14542032
 H      8   7   6     1.075371079426   121.66116110   178.28035202
 H      8   7   6     1.076235549339   121.89736908   358.25434388
 H      9   6   5     1.086489972559   109.13924851   283.57862224
 H      9   6   5     1.083784919401   112.41801524   164.08307489
 H     10   9   6     1.088238439297   108.56398144    74.90242720
 H     11  10   9     1.078166552969   114.20603551   174.88467009
 H     12  11  10     1.075113494656   120.91303845   180.54863460
 H     12  11  10     1.075288871733   122.88248674     0.17019056
 H     15  14   2     1.075940476516   106.73534857   161.97593432
 H     15  14   2     1.082377946705   107.05521055    46.60700865
 H     16  15  14     1.083675060397   109.21379847    68.01168792
 H     16  15  14     1.084838661029   105.81721355   182.81087843
 H     17  16  15     1.087428401082   110.12468759    73.37858391
 H     17  16  15     1.086382725471   107.80690655   188.80854548
 H     18  17  16     1.088363498365   109.45026028   186.04435421
 H     18  17  16     1.080280265097   110.40661836    68.20411208
 H     20  19  18     1.088823694191   109.55530190     3.54804297
 H     21  20  19     1.083693261309   108.31147057   302.41935873
 H     22  21  20     0.951701383060   113.28866394    36.54100354
 H     23  21  20     1.090394534236   109.29934818   296.06972564
 H     24  23  21     1.080714019417   108.20551018   190.02321273
 H     24  23  21     1.088348709763   109.25217052   306.98990736
 H     25  24  23     0.949126996811   108.54240976   303.93605744
 H     27  26  23     1.091630719966   109.73808026   302.68077093
 H     28  27  26     0.949595796508   107.98119054   192.36368778
 H     29  27  26     1.086192134932   107.53617909    61.71010412
 H     30  29  27     0.947999511816   108.77271670   188.94286526

---------------------------
INTERNAL COORDINATES (A.U.)
---------------------------
 O      0   0   0     0.000000000000     0.00000000     0.00000000
 C      1   0   0     2.250056565020     0.00000000     0.00000000
 C      2   1   0     2.859078064612   126.89969007     0.00000000
 H      3   2   1     2.048231506276   107.56597250   296.77154770
 C      3   2   1     2.902031742073   104.51066543   177.29120167
 C      5   3   2     2.948241740790   106.72154314   240.62349800
 C      6   5   3     2.852326547469   115.19959090    94.10517206
 C      7   6   5     2.491953663910   124.30162573   117.91770244
 C      6   5   3     2.916472589691   101.44876198   333.43492219
 C      9   6   5     2.900452796568   104.83605685    40.92632951
 C     10   9   6     2.846644144069   117.55336365   196.02405895
 C     11  10   9     2.492253198451   126.64350914   354.04807353
 H      5   3   2     2.046245013324   112.38319342   121.28401387
 N      2   1   3     2.613408867675   124.39902051   180.55016411
 C     14   2   1     2.769848608824   122.37583293     7.86585969
 C     15  14   2     2.890376950193   115.46082999   285.69765827
 C     16  15  14     2.896571964656   117.11005224   304.27455518
 C     17  16  15     2.873473391877   116.04162788   311.58340330
 O     18  17  16     2.660248741596   110.21971473   306.74859072
 C     19  18  17     2.651251644085   115.58134602   169.44293205
 C     20  19  18     2.884145645746   112.03013322   242.45313875
 O     21  20  19     2.652850991624   113.84493351    59.53074384
 C     21  20  19     2.903367837847   109.23210824   184.90077028
 C     23  21  20     2.881789792842   113.42468576   175.41837151
 O     24  23  21     2.636181646298   112.51741449    71.69242028
 O     23  21  20     2.656827418748   109.21466350    56.66888534
 C     26  23  21     2.617135715257   114.64463956   297.33775215
 O     27  26  23     2.602980752918   106.54046705   183.14345264
 C     27  26  23     2.873652657453   109.20289571    62.57980088
 O     29  27  26     2.649721083115   107.42192958   180.63303514
 C     14   2   1     2.600352144989   113.14802501   179.00128672
 O     31  14   2     2.260724958195   125.22831134   184.91250149
 H      6   5   3     2.045607911004   109.50797822   215.92350680
 H      7   6   5     2.038497788374   117.04102297   296.14542032
 H      8   7   6     2.032156832454   121.66116110   178.28035202
 H      8   7   6     2.033790443841   121.89736908   358.25434388
 H      9   6   5     2.053168495389   109.13924851   283.57862224
 H      9   6   5     2.048056685743   112.41801524   164.08307489
 H     10   9   6     2.056472618678   108.56398144    74.90242720
 H     11  10   9     2.037439511866   114.20603551   174.88467009
 H     12  11  10     2.031670067783   120.91303845   180.54863460
 H     12  11  10     2.032001482428   122.88248674     0.17019056
 H     15  14   2     2.033232837017   106.73534857   161.97593432
 H     15  14   2     2.045397892668   107.05521055    46.60700865
 H     16  15  14     2.047849082310   109.21379847    68.01168792
 H     16  15  14     2.050047968835   105.81721355   182.81087843
 H     17  16  15     2.054941868292   110.12468759    73.37858391
 H     17  16  15     2.052965827763   107.80690655   188.80854548
 H     18  17  16     2.056708946066   109.45026028   186.04435421
 H     18  17  16     2.041433848914   110.40661836    68.20411208
 H     20  19  18     2.057578590145   109.55530190     3.54804297
 H     21  20  19     2.047883477050   108.31147057   302.41935873
 H     22  21  20     1.798454975258   113.28866394    36.54100354
 H     23  21  20     2.060547047631   109.29934818   296.06972564
 H     24  23  21     2.042253525787   108.20551018   190.02321273
 H     24  23  21     2.056680999658   109.25217052   306.98990736
 H     25  24  23     1.793590090284   108.54240976   303.93605744
 H     27  26  23     2.062883100112   109.73808026   302.68077093
 H     28  27  26     1.794475993323   107.98119054   192.36368778
 H     29  27  26     2.052605663842   107.53617909    61.71010412
 H     30  29  27     1.791459452423   108.77271670   188.94286526

------------------------------------------------------------------------------
                   ___                                                        
                  /   \      - P O W E R E D   B Y -                         
                 /     \                                                     
                 |  |  |   _    _      __       _____    __    __             
                 |  |  |  | |  | |    /  \     |  _  \  |  |  /  |          
                  \  \/   | |  | |   /    \    | | | |  |  | /  /          
                 / \  \   | |__| |  /  /\  \   | |_| |  |  |/  /          
                |  |  |   |  __  | /  /__\  \  |    /   |      \           
                |  |  |   | |  | | |   __   |  |    \   |  |\   \          
                \     /   | |  | | |  |  |  |  | |\  \  |  | \   \       
                 \___/    |_|  |_| |__|  |__|  |_| \__\ |__|  \__/        
                                                                              
                      - O R C A' S   B I G   F R I E N D -                    
                                      &                                       
                       - I N T E G R A L  F E E D E R -                       
                                                                              
 v1 FN, 2020, v2 2021, v3 2022-2024                                           
------------------------------------------------------------------------------


----------------------
SHARK INTEGRAL PACKAGE
----------------------

Number of atoms                             ...     61
Number of basis functions                   ...    482
Number of shells                            ...    242
Maximum angular momentum                    ...      2
Integral batch strategy                     ... SHARK/LIBINT Hybrid
RI-J (if used) integral strategy            ... SPLIT-RIJ (Revised 2003 algorithm where possible)
Printlevel                                  ...      1
Contraction scheme used                     ... SEGMENTED contraction
Prescreening option                         ... SCHWARTZ
   Thresh                                   ... 2.500e-11
   Tcut                                     ... 2.500e-12
   Tpresel                                  ... 2.500e-12 
Coulomb Range Separation                    ... NOT USED
Exchange Range Separation                   ... NOT USED
Multipole approximations                    ... NOT USED
Finite Nucleus Model                        ... NOT USED
CABS basis                                  ... NOT available
Auxiliary Coulomb fitting basis             ... NOT available
Auxiliary J/K fitting basis                 ... NOT available
Auxiliary Correlation fitting basis         ... NOT available
Auxiliary 'external' fitting basis          ... NOT available

Checking pre-screening integrals            ... done (  0.0 sec) Dimension = 242
Check shell pair data                       ... done (  0.0 sec)
Shell pair information
Shell pair cut-off parameter TPreSel        ...   2.5e-12
Total number of shell pairs                 ...     29403
Shell pairs after pre-screening             ...     18290
Total number of primitive shell pairs       ...    165748
Primitive shell pairs kept                  ...     54393
          la=0 lb=0:   6958 shell pairs
          la=1 lb=0:   6131 shell pairs
          la=1 lb=1:   1361 shell pairs
          la=2 lb=0:   2467 shell pairs
          la=2 lb=1:   1140 shell pairs
          la=2 lb=2:    233 shell pairs

Calculating one electron integrals          ... done (  0.2 sec)
Calculating Nuclear repulsion               ... done (  0.0 sec) ENN=   3221.792315113150 Eh

Diagonalization of the overlap matrix:
Smallest eigenvalue                        ... 1.168e-03
Time for diagonalization                   ...    0.022 sec
Threshold for overlap eigenvalues          ... 1.000e-07
Number of eigenvalues below threshold      ... 0
Time for construction of square roots      ...    0.011 sec
Total time needed                          ...    0.034 sec

-------------------
DFT GRID GENERATION
-------------------

General Integration Accuracy     IntAcc      ... 4.388
Radial Grid Type                 RadialGrid  ... OptM3 with GC (2021)
Angular Grid (max. ang.)         AngularGrid ... 4 (Lebedev-302)
Angular grid pruning method      GridPruning ... 4 (adaptive)
Weight generation scheme         WeightScheme... mBecke (2022)
Basis function cutoff            BFCut       ... 1.0000e-11
Integration weight cutoff        WCut        ... 1.0000e-14
Partially contracted basis set               ... off
Rotationally invariant grid construction     ... off
Angular grids for H and He will be reduced by one unit

Total number of grid points                  ...   276069
Total number of batches                      ...     4345
Average number of points per batch           ...       63
Average number of grid points per atom       ...     4526
Initializing property integral containers    ... done (  0.0 sec)

SHARK setup successfully completed in   4.6 seconds

Maximum memory used throughout the entire STARTUP-calculation: 121.6 MB
Occupation numbers will be reassigned to an Aufbau configuration
             **** ENERGY FILE WAS UPDATED (monomer_hf_opt.en.tmp) ****
Finished Guess after   0.2 sec
Maximum memory used throughout the entire GUESS-calculation: 46.2 MB
----------------------------------------D-I-I-S--------------------------------------------
Iteration    Energy (Eh)           Delta-E    RMSDP     MaxDP     DIISErr   Damp  Time(sec)
-------------------------------------------------------------------------------------------
               ***  Starting incremental Fock matrix formation  ***
    1    -1466.5850725017594414     0.00e+00  2.77e-05  1.12e-03  7.03e-03  0.700  51.5
    2    -1466.5853299417181006    -2.57e-04  2.53e-05  9.87e-04  5.75e-03  0.700  36.4
                               ***Turning on AO-DIIS***
    3    -1466.5855460925599800    -2.16e-04  2.61e-05  9.73e-04  4.58e-03  0.700  36.0
    4    -1466.5857185808067698    -1.72e-04  7.33e-05  2.56e-03  3.39e-03  0.000  35.8
                              *** Initializing SOSCF ***
---------------------------------------S-O-S-C-F--------------------------------------
Iteration    Energy (Eh)           Delta-E    RMSDP     MaxDP     MaxGrad    Time(sec)
--------------------------------------------------------------------------------------
    5    -1466.5862466761113865    -5.28e-04  1.03e-05  3.42e-04  3.19e-04    38.6
               *** Restarting incremental Fock matrix formation ***
    6    -1466.5862502875493192    -3.61e-06  5.43e-06  2.53e-04  8.19e-05    51.5
    7    -1466.5862511230284326    -8.35e-07  4.39e-06  2.24e-04  4.90e-05    30.4
    8    -1466.5862513900660815    -2.67e-07  5.87e-07  3.40e-05  1.23e-05    29.5
    9    -1466.5862513954566566    -5.39e-09  5.38e-07  3.39e-05  6.84e-06    23.8
                 **** Energy Check signals convergence ****

               *****************************************************
               *                     SUCCESS                       *
               *           SCF CONVERGED AFTER   9 CYCLES          *
               *****************************************************

             **** ENERGY FILE WAS UPDATED (monomer_hf_opt.en.tmp) ****

----------------
TOTAL SCF ENERGY
----------------

Total Energy       :      -1466.58625139545666 Eh          -39907.84078 eV

Components:
Nuclear Repulsion  :       3221.79231511315038 Eh           87669.42592 eV
Electronic Energy  :      -4688.37856650860704 Eh         -127577.26670 eV
One Electron Energy:      -8418.34304492061347 Eh         -229074.76019 eV
Two Electron Energy:       3729.96447841200643 Eh          101497.49349 eV

Virial components:
Potential Energy   :      -2933.26527811763708 Eh          -79818.20610 eV
Kinetic Energy     :       1466.67902672218042 Eh           39910.36532 eV
Virial Ratio       :          1.99993674462849

---------------
SCF CONVERGENCE
---------------

  Last Energy change         ...    5.3906e-09  Tolerance :   1.0000e-08
  Last MAX-Density change    ...    3.3854e-05  Tolerance :   1.0000e-07
  Last RMS-Density change    ...    5.3847e-07  Tolerance :   5.0000e-09
  Last DIIS Error            ...    3.1935e-04  Tolerance :   5.0000e-07
  Last Orbital Gradient      ...    6.8436e-06  Tolerance :   1.0000e-05
  Last Orbital Rotation      ...    2.7249e-05  Tolerance :   1.0000e-05


Total SCF time: 0 days 0 hours 5 min 33 sec 
Finished LeanSCF after 333.7 sec

Maximum memory used throughout the entire LEANSCF-calculation: 48.7 MB

-------------------------   --------------------
FINAL SINGLE POINT ENERGY     -1466.586251395457
-------------------------   --------------------

------------------------------------------------------------------------------
                         ORCA SCF GRADIENT CALCULATION
------------------------------------------------------------------------------

Nuc. rep. gradient        (SHARK) ... done (  0.0 sec)
HCore & Overlap gradient  (SHARK) ... done (  3.0 sec)
Two-electron gradient     (SHARK) ... done (179.0 sec)

------------------
CARTESIAN GRADIENT
------------------

   1   O   :   -0.000065702    0.000028807   -0.000064061
   2   C   :    0.000096822   -0.000238971    0.000327175
   3   C   :   -0.000096686    0.000064174   -0.000129386
   4   H   :    0.000077703    0.000015253    0.000022420
   5   C   :   -0.000064575    0.000071777   -0.000250026
   6   C   :    0.000086572   -0.000073249    0.000038416
   7   C   :   -0.000092186    0.000157681   -0.000218115
   8   C   :   -0.000249780    0.000111342    0.000208944
   9   C   :   -0.000025417   -0.000003391    0.000051833
  10   C   :    0.000060675   -0.000100097    0.000013253
  11   C   :   -0.000099024    0.000053618    0.000007682
  12   C   :    0.000058817   -0.000036522   -0.000016417
  13   H   :    0.000106161    0.000033668    0.000048078
  14   N   :   -0.000172839    0.000229840   -0.000265769
  15   C   :    0.000223698   -0.000145045    0.000016199
  16   C   :   -0.000030627    0.000388864    0.000216651
  17   C   :   -0.000065561    0.000014109   -0.000005714
  18   C   :   -0.000070648   -0.000335162   -0.000025153
  19   O   :   -0.000139388   -0.000061674    0.000134365
  20   C   :    0.000120653    0.000002356   -0.000065714
  21   C   :    0.000140529   -0.000078656   -0.000077834
  22   O   :   -0.000108624   -0.000026255    0.000150701
  23   C   :   -0.000067353   -0.000021081    0.000074478
  24   C   :    0.000026506   -0.000047359    0.000100899
  25   O   :   -0.000126173    0.000174734   -0.000079341
  26   O   :    0.000087170    0.000016672    0.000038268
  27   C   :   -0.000113875    0.000055646   -0.000155124
  28   O   :   -0.000003968    0.000026832   -0.000261370
  29   C   :   -0.000014126   -0.000018841   -0.000071312
  30   O   :   -0.000219123    0.000201198    0.000039168
  31   C   :   -0.000055837   -0.000224253    0.000487754
  32   O   :    0.000024029    0.000133397   -0.000167471
  33   H   :   -0.000012757    0.000029146    0.000003840
  34   H   :    0.000054399   -0.000056748    0.000034286
  35   H   :    0.000069865   -0.000166964   -0.000083613
  36   H   :    0.000078881    0.000053709   -0.000028788
  37   H   :   -0.000008865   -0.000028525   -0.000075217
  38   H   :   -0.000018344   -0.000022111    0.000011202
  39   H   :    0.000092674    0.000005340   -0.000042060
  40   H   :    0.000013146   -0.000029893   -0.000018923
  41   H   :    0.000007884   -0.000047947   -0.000020593
  42   H   :   -0.000045490    0.000085837    0.000042830
  43   H   :   -0.000082907   -0.000006086    0.000016406
  44   H   :    0.000071436    0.000021706    0.000025649
  45   H   :   -0.000030634   -0.000111766   -0.000031110
  46   H   :   -0.000013361   -0.000019884   -0.000079255
  47   H   :   -0.000018340    0.000001713    0.000032657
  48   H   :   -0.000014479   -0.000033091   -0.000041150
  49   H   :    0.000127084    0.000081382   -0.000038792
  50   H   :    0.000119457    0.000187454   -0.000078897
  51   H   :    0.000015976    0.000016433    0.000018555
  52   H   :   -0.000017582    0.000026337   -0.000071316
  53   H   :   -0.000017572    0.000084097   -0.000039226
  54   H   :   -0.000020374    0.000045650   -0.000015784
  55   H   :   -0.000028120   -0.000006076    0.000033127
  56   H   :   -0.000033566    0.000008180   -0.000054285
  57   H   :    0.000203042   -0.000176701    0.000016466
  58   H   :    0.000046450   -0.000001401    0.000048184
  59   H   :    0.000040262   -0.000062692    0.000306425
  60   H   :   -0.000030632   -0.000019166    0.000024903
  61   H   :    0.000224646   -0.000227345   -0.000019000

Difference to translation invariance:
           :   -0.0000000000   -0.0000000000    0.0000000000

Difference to rotation invariance:
           :   -0.0000083598   -0.0000074776   -0.0000006748

Norm of the Cartesian gradient     ...    0.0015405100
RMS gradient                       ...    0.0001138778
MAX gradient                       ...    0.0004877535

-------
TIMINGS
-------

Total SCF gradient time     ....      181.920 sec

Densities                   ....       0.005 sec  (  0.0%)
One electron gradient       ....       2.963 sec  (  1.6%)
Two electron gradient       ....     178.951 sec  ( 98.4%)

Maximum memory used throughout the entire SCFGRAD-calculation: 105.7 MB
------------------------------------------------------------------------------
                         ORCA GEOMETRY RELAXATION STEP
------------------------------------------------------------------------------

Reading the OPT-File                    .... done
Getting information on internals        .... done
Copying old internal coords+grads       .... done
Making the new internal coordinates     .... (2022 redundants) done
Validating the new internal coordinates .... (2022 redundants) done
Calculating the B-matrix                .... done
Calculating the G,G- and P matrices     .... done
Transforming gradient to internals      .... done
Projecting the internal gradient        .... done
Number of atoms                         ....  61
Number of internal coordinates          .... 327
Current Energy                          .... -1466.586251395 Eh
Current gradient norm                   ....     0.001540510 Eh/bohr
Maximum allowed component of the step   ....  0.300
Current trust radius                    ....  0.675
Updating the Hessian (BFGS)             .... done
Forming the augmented Hessian           .... done
Diagonalizing the augmented Hessian     .... done
Last element of RFO vector              ....  0.999311478
Lowest eigenvalues of augmented Hessian:
 -0.000010459  0.001181081  0.003109536  0.011880238  0.012385333
Length of the computed step             ....  0.037127720
The final length of the internal step   ....  0.037127720
Converting the step to Cartesian space:
 Initial RMS(Int)=    0.0020531676
Transforming coordinates:
 Iter   0:  RMS(Cart)=    0.0082014048 RMS(Int)=    0.0020503983
done
Storing new coordinates                 .... done
The predicted energy change is          ....    -0.000005237
Previously predicted energy change      ....    -0.000021847
Actually observed energy change         ....    -0.000021079
Ratio of predicted to observed change   ....     0.964848416
New trust radius                        ....     0.700000000

                                .--------------------.
          ----------------------|Geometry convergence|-------------------------
          Item                value                   Tolerance       Converged
          ---------------------------------------------------------------------
          Energy change      -0.0000210793            0.0000050000      NO
          RMS gradient        0.0000700653            0.0001000000      YES
          MAX gradient        0.0003394285            0.0003000000      NO
          RMS step            0.0020531676            0.0020000000      NO
          MAX step            0.0245917252            0.0040000000      NO
          ........................................................
          Max(Bonds)      0.0130      Max(Angles)    0.06
          Max(Dihed)        0.42      Max(Improp)    0.00
          ---------------------------------------------------------------------

The optimization has not yet converged - more geometry cycles are needed


    ---------------------------------------------------------------------------
                         Redundant Internal Coordinates
                            (Angstroem and degrees)

        Definition                    Value    dE/dq     Step     New-Value
    ----------------------------------------------------------------------------
     1. B(C   1,O   0)                1.1907  0.000029 -0.0001    1.1906   
     2. B(C   2,C   1)                1.5130 -0.000043  0.0001    1.5131   
     3. B(H   3,C   2)                1.0839 -0.000007 -0.0000    1.0839   
     4. B(C   4,C   2)                1.5357 -0.000005  0.0001    1.5358   
     5. B(C   5,C   4)                1.5601  0.000074 -0.0001    1.5600   
     6. B(C   6,C   5)                1.5094  0.000049  0.0000    1.5094   
     7. B(C   7,C   6)                1.3187 -0.000107  0.0001    1.3187   
     8. B(C   8,C   5)                1.5433 -0.000047  0.0001    1.5434   
     9. B(C   9,C   8)                1.5349 -0.000028  0.0001    1.5349   
    10. B(C   9,C   2)                1.5506  0.000008  0.0001    1.5508   
    11. B(C  10,C   9)                1.5064  0.000061 -0.0000    1.5064   
    12. B(C  11,C  10)                1.3188 -0.000020 -0.0000    1.3188   
    13. B(H  12,C   4)                1.0828  0.000008 -0.0000    1.0828   
    14. B(N  13,C   1)                1.3830 -0.000060  0.0000    1.3830   
    15. B(C  14,N  13)                1.4657  0.000153 -0.0000    1.4657   
    16. B(C  15,C  14)                1.5295  0.000036  0.0001    1.5296   
    17. B(C  16,C  15)                1.5328  0.000140 -0.0002    1.5326   
    18. B(C  17,C  16)                1.5206  0.000232 -0.0003    1.5203   
    19. B(O  18,C  17)                1.4077  0.000003  0.0000    1.4077   
    20. B(C  19,O  18)                1.4030  0.000099 -0.0001    1.4028   
    21. B(C  20,C  19)                1.5262  0.000030  0.0000    1.5262   
    22. B(O  21,C  20)                1.4038  0.000141 -0.0002    1.4037   
    23. B(C  22,C  20)                1.5364 -0.000032  0.0001    1.5365   
    24. B(C  23,C  22)                1.5250  0.000003  0.0000    1.5250   
    25. B(O  24,C  23)                1.3950 -0.000105  0.0000    1.3951   
    26. B(O  25,C  22)                1.4059  0.000036 -0.0001    1.4059   
    27. B(C  26,O  25)                1.3849  0.000062 -0.0001    1.3848   
    28. B(O  27,C  26)                1.3774  0.000002 -0.0000    1.3774   
    29. B(C  28,C  26)                1.5207 -0.000006  0.0000    1.5207   
    30. B(C  28,C  19)                1.5209  0.000002  0.0001    1.5210   
    31. B(O  29,C  28)                1.4022 -0.000023 -0.0000    1.4021   
    32. B(C  30,N  13)                1.3760  0.000023 -0.0000    1.3760   
    33. B(C  30,C   4)                1.5146 -0.000043  0.0002    1.5148   
    34. B(O  31,C  30)                1.1963 -0.000058 -0.0001    1.1962   
    35. B(H  32,C   5)                1.0825 -0.000029  0.0000    1.0825   
    36. B(H  33,C   6)                1.0787 -0.000065  0.0000    1.0787   
    37. B(H  34,C   7)                1.0754  0.000044 -0.0001    1.0753   
    38. B(H  35,C   7)                1.0762 -0.000052  0.0000    1.0763   
    39. B(H  36,C   8)                1.0865 -0.000031  0.0000    1.0865   
    40. B(H  37,C   8)                1.0838  0.000001 -0.0000    1.0838   
    41. B(H  38,C   9)                1.0882  0.000063 -0.0001    1.0881   
    42. B(H  39,C  10)                1.0782 -0.000032  0.0000    1.0782   
    43. B(H  40,C  11)                1.0751 -0.000039  0.0000    1.0751   
    44. B(H  41,C  11)                1.0753 -0.000082  0.0001    1.0753   
    45. B(H  42,C  14)                1.0759 -0.000058  0.0001    1.0760   
    46. B(H  43,C  14)                1.0824  0.000032 -0.0001    1.0823   
    47. B(H  44,C  15)                1.0837 -0.000063  0.0001    1.0838   
    48. B(H  45,C  15)                1.0848 -0.000032  0.0000    1.0849   
    49. B(H  46,C  16)                1.0874  0.000009 -0.0000    1.0874   
    50. B(H  47,C  16)                1.0864 -0.000002 -0.0000    1.0864   
    51. B(H  48,C  17)                1.0884  0.000018 -0.0000    1.0883   
    52. B(H  48,H  34)                3.5058  0.000005 -0.0130    3.4928   
    53. B(H  49,C  17)                1.0803 -0.000231  0.0002    1.0804   
    54. B(H  50,C  19)                1.0888 -0.000027  0.0000    1.0888   
    55. B(H  51,C  20)                1.0837 -0.000011 -0.0000    1.0837   
    56. B(H  52,O  21)                0.9517 -0.000039 -0.0001    0.9516   
    57. B(H  52,O  31)                2.2069 -0.000031  0.0047    2.2116   
    58. B(H  53,C  22)                1.0904 -0.000023  0.0000    1.0904   
    59. B(H  54,C  23)                1.0807 -0.000022 -0.0000    1.0807   
    60. B(H  55,C  23)                1.0883 -0.000027 -0.0000    1.0883   
    61. B(H  56,O  24)                0.9491 -0.000236  0.0001    0.9492   
    62. B(H  56,O  21)                2.1169  0.000044  0.0003    2.1172   
    63. B(H  57,C  26)                1.0916 -0.000037  0.0000    1.0917   
    64. B(H  58,O  27)                0.9496 -0.000309  0.0002    0.9498   
    65. B(H  58,O  29)                2.3711 -0.000002  0.0012    2.3724   
    66. B(H  59,C  28)                1.0862 -0.000023 -0.0000    1.0862   
    67. B(H  60,O  29)                0.9480 -0.000307  0.0002    0.9482   
    68. A(O   0,C   1,N  13)          124.40  0.000026   -0.00    124.39   
    69. A(O   0,C   1,C   2)          126.90 -0.000081    0.00    126.90   
    70. A(C   2,C   1,N  13)          108.70  0.000056    0.00    108.70   
    71. A(C   1,C   2,H   3)          107.57 -0.000096    0.00    107.57   
    72. A(H   3,C   2,C   4)          112.25  0.000028   -0.00    112.24   
    73. A(H   3,C   2,C   9)          110.43  0.000042   -0.02    110.41   
    74. A(C   1,C   2,C   9)          115.03  0.000059    0.01    115.04   
    75. A(C   4,C   2,C   9)          107.01 -0.000033    0.02    107.03   
    76. A(C   1,C   2,C   4)          104.51  0.000001   -0.01    104.50   
    77. A(H  12,C   4,C  30)          107.17 -0.000102    0.03    107.20   
    78. A(C   2,C   4,H  12)          112.38  0.000006    0.02    112.40   
    79. A(C   5,C   4,C  30)          117.02  0.000143   -0.04    116.98   
    80. A(C   2,C   4,C   5)          106.72 -0.000017   -0.01    106.71   
    81. A(C   2,C   4,C  30)          104.68 -0.000048    0.00    104.68   
    82. A(C   5,C   4,H  12)          108.93  0.000017    0.00    108.93   
    83. A(C   6,C   5,C   8)          111.58 -0.000094    0.01    111.60   
    84. A(C   4,C   5,C   8)          101.45  0.000012   -0.01    101.44   
    85. A(C   6,C   5,H  32)          107.91 -0.000027    0.01    107.92   
    86. A(C   4,C   5,H  32)          109.51 -0.000029    0.01    109.52   
    87. A(C   4,C   5,C   6)          115.20  0.000151   -0.05    115.15   
    88. A(C   8,C   5,H  32)          111.13 -0.000012    0.02    111.15   
    89. A(C   5,C   6,C   7)          124.30 -0.000316    0.03    124.34   
    90. A(C   5,C   6,H  33)          117.04  0.000164   -0.02    117.02   
    91. A(C   7,C   6,H  33)          118.63  0.000152   -0.01    118.62   
    92. A(C   6,C   7,H  35)          121.90 -0.000055    0.00    121.90   
    93. A(C   6,C   7,H  34)          121.66  0.000224   -0.02    121.64   
    94. A(H  34,C   7,H  35)          116.44 -0.000169    0.02    116.46   
    95. A(C   9,C   8,H  36)          109.61  0.000014   -0.02    109.59   
    96. A(C   5,C   8,H  36)          109.14  0.000040   -0.01    109.13   
    97. A(H  36,C   8,H  37)          107.76 -0.000019    0.01    107.76   
    98. A(C   5,C   8,C   9)          104.84 -0.000036    0.01    104.85   
    99. A(C   5,C   8,H  37)          112.42 -0.000018    0.00    112.42   
   100. A(C   9,C   8,H  37)          113.02  0.000022   -0.00    113.02   
   101. A(C   2,C   9,C  10)          112.99 -0.000021   -0.00    112.99   
   102. A(C  10,C   9,H  38)          106.69  0.000096   -0.02    106.67   
   103. A(C   2,C   9,C   8)          102.62  0.000035    0.01    102.63   
   104. A(C   8,C   9,H  38)          108.56 -0.000031    0.00    108.57   
   105. A(C   2,C   9,H  38)          108.09 -0.000072    0.02    108.10   
   106. A(C   8,C   9,C  10)          117.55 -0.000020   -0.00    117.55   
   107. A(C   9,C  10,H  39)          114.21 -0.000045    0.00    114.21   
   108. A(C  11,C  10,H  39)          119.15 -0.000006   -0.00    119.14   
   109. A(C   9,C  10,C  11)          126.64  0.000051   -0.00    126.64   
   110. A(H  40,C  11,H  41)          116.20 -0.000069    0.01    116.21   
   111. A(C  10,C  11,H  41)          122.88  0.000066   -0.01    122.88   
   112. A(C  10,C  11,H  40)          120.91  0.000003   -0.00    120.91   
   113. A(C   1,N  13,C  30)          113.15 -0.000082    0.01    113.16   
   114. A(C   1,N  13,C  14)          122.38  0.000185   -0.05    122.33   
   115. A(C  14,N  13,C  30)          123.83 -0.000105    0.05    123.88   
   116. A(N  13,C  14,C  15)          115.46 -0.000179    0.03    115.49   
   117. A(H  42,C  14,H  43)          107.93 -0.000027    0.01    107.93   
   118. A(C  15,C  14,H  43)          108.50  0.000060   -0.02    108.48   
   119. A(N  13,C  14,H  43)          107.06  0.000074   -0.04    107.02   
   120. A(C  15,C  14,H  42)          110.87  0.000046    0.01    110.88   
   121. A(N  13,C  14,H  42)          106.74  0.000034    0.01    106.75   
   122. A(H  44,C  15,H  45)          106.94  0.000031   -0.02    106.92   
   123. A(C  14,C  15,C  16)          117.11 -0.000339    0.06    117.17   
   124. A(C  16,C  15,H  45)          108.83 -0.000038   -0.00    108.83   
   125. A(C  14,C  15,H  45)          105.82  0.000170   -0.01    105.80   
   126. A(C  16,C  15,H  44)          108.47  0.000118   -0.01    108.47   
   127. A(C  14,C  15,H  44)          109.21  0.000085   -0.02    109.19   
   128. A(C  17,C  16,H  47)          109.20 -0.000023    0.01    109.21   
   129. A(H  46,C  16,H  47)          106.18 -0.000002    0.00    106.18   
   130. A(C  15,C  16,H  47)          107.81  0.000053    0.00    107.81   
   131. A(C  17,C  16,H  46)          107.06  0.000024   -0.00    107.06   
   132. A(C  15,C  16,H  46)          110.12 -0.000019    0.01    110.13   
   133. A(C  15,C  16,C  17)          116.04 -0.000032   -0.02    116.02   
   134. A(C  16,C  17,O  18)          110.22  0.000113   -0.02    110.20   
   135. A(O  18,C  17,H  49)          109.78 -0.000078    0.01    109.79   
   136. A(C  16,C  17,H  49)          110.41 -0.000047   -0.01    110.40   
   137. A(O  18,C  17,H  48)          109.68 -0.000112    0.01    109.69   
   138. A(C  16,C  17,H  48)          109.45  0.000042    0.01    109.46   
   139. A(H  48,C  17,H  49)          107.25  0.000081    0.00    107.26   
   140. A(C  17,O  18,C  19)          115.58 -0.000004    0.00    115.58   
   141. A(O  18,C  19,C  20)          112.03 -0.000080    0.03    112.06   
   142. A(C  28,C  19,H  50)          108.15 -0.000042    0.01    108.15   
   143. A(C  20,C  19,H  50)          109.00  0.000032    0.01    109.01   
   144. A(O  18,C  19,H  50)          109.56 -0.000026    0.00    109.56   
   145. A(C  20,C  19,C  28)          108.89 -0.000003   -0.01    108.88   
   146. A(O  18,C  19,C  28)          109.13  0.000119   -0.04    109.09   
   147. A(O  21,C  20,C  22)          111.51 -0.000010    0.01    111.52   
   148. A(C  19,C  20,C  22)          109.23  0.000022   -0.01    109.22   
   149. A(C  19,C  20,O  21)          113.84  0.000010    0.02    113.86   
   150. A(O  21,C  20,H  51)          105.59  0.000017   -0.02    105.57   
   151. A(C  19,C  20,H  51)          108.31 -0.000045    0.02    108.33   
   152. A(C  22,C  20,H  51)          108.10  0.000003   -0.01    108.09   
   153. A(C  20,O  21,H  52)          113.29 -0.000069    0.03    113.31   
   154. A(O  25,C  22,H  53)          110.18 -0.000008   -0.00    110.17   
   155. A(C  23,C  22,H  53)          108.07  0.000038   -0.02    108.05   
   156. A(C  20,C  22,H  53)          109.30 -0.000030    0.01    109.31   
   157. A(C  23,C  22,O  25)          106.61 -0.000010    0.01    106.62   
   158. A(C  20,C  22,O  25)          109.21 -0.000002    0.01    109.22   
   159. A(C  20,C  22,C  23)          113.42  0.000012   -0.01    113.42   
   160. A(H  54,C  23,H  55)          107.68  0.000024   -0.01    107.67   
   161. A(C  22,C  23,H  55)          109.25 -0.000056    0.02    109.27   
   162. A(O  24,C  23,H  54)          107.26 -0.000028    0.01    107.27   
   163. A(C  22,C  23,H  54)          108.21  0.000050   -0.00    108.20   
   164. A(O  24,C  23,H  55)          111.73  0.000039   -0.01    111.72   
   165. A(C  22,C  23,O  24)          112.52 -0.000024   -0.01    112.51   
   166. A(C  23,O  24,H  56)          108.54  0.000028   -0.01    108.53   
   167. A(C  22,O  25,C  26)          114.64 -0.000012    0.02    114.66   
   168. A(C  28,C  26,H  57)          109.39  0.000023   -0.01    109.38   
   169. A(O  27,C  26,H  57)          110.41 -0.000005    0.00    110.41   
   170. A(O  25,C  26,H  57)          109.74 -0.000008    0.01    109.75   
   171. A(O  27,C  26,C  28)          111.51  0.000030   -0.01    111.50   
   172. A(O  25,C  26,C  28)          109.20 -0.000001    0.00    109.21   
   173. A(O  25,C  26,O  27)          106.54 -0.000040    0.00    106.54   
   174. A(C  26,O  27,H  58)          107.98 -0.000081    0.01    107.99   
   175. A(O  29,C  28,H  59)          110.47  0.000036   -0.01    110.47   
   176. A(C  26,C  28,H  59)          107.54 -0.000015    0.00    107.54   
   177. A(C  19,C  28,H  59)          109.21 -0.000023    0.00    109.22   
   178. A(C  26,C  28,O  29)          107.42 -0.000018    0.00    107.43   
   179. A(C  19,C  28,O  29)          111.81  0.000020   -0.01    111.80   
   180. A(C  19,C  28,C  26)          110.28 -0.000001    0.01    110.29   
   181. A(C  28,O  29,H  60)          108.77  0.000057   -0.02    108.75   
   182. A(N  13,C  30,O  31)          125.23 -0.000142    0.02    125.25   
   183. A(C   4,C  30,O  31)          126.15  0.000080   -0.02    126.14   
   184. A(C   4,C  30,N  13)          108.62  0.000065   -0.01    108.61   
   185. D(C   9,C   2,C   1,O   0)     60.27 -0.000035   -0.09     60.18   
   186. D(H   3,C   2,C   1,N  13)    116.29 -0.000020   -0.15    116.14   
   187. D(H   3,C   2,C   1,O   0)    -63.23 -0.000056   -0.07    -63.30   
   188. D(C   4,C   2,C   1,N  13)     -3.19 -0.000007   -0.15     -3.34   
   189. D(C   4,C   2,C   1,O   0)    177.29 -0.000043   -0.07    177.22   
   190. D(C   5,C   4,C   2,H   3)    124.35  0.000014    0.20    124.55   
   191. D(H  12,C   4,C   2,H   3)      5.01  0.000000    0.19      5.20   
   192. D(C   5,C   4,C   2,C   1)   -119.38 -0.000085    0.20   -119.18   
   193. D(H  12,C   4,C   2,C   1)    121.28 -0.000099    0.19    121.48   
   194. D(H  12,C   4,C   2,C   9)   -116.29 -0.000047    0.20   -116.08   
   195. D(C   5,C   4,C   2,C   9)      3.05 -0.000033    0.21      3.26   
   196. D(C   6,C   5,C   4,C  30)    -22.66 -0.000048   -0.14    -22.80   
   197. D(C   8,C   5,C   4,C  30)   -143.33 -0.000018   -0.12   -143.45   
   198. D(C   8,C   5,C   4,C   2)    -26.57 -0.000007   -0.15    -26.72   
   199. D(C   6,C   5,C   4,C   2)     94.11 -0.000036   -0.17     93.93   
   200. D(C   6,C   5,C   4,H  12)   -144.34 -0.000029   -0.16   -144.49   
   201. D(C   8,C   5,C   4,H  12)     94.99  0.000001   -0.14     94.86   
   202. D(C   7,C   6,C   5,C   8)   -127.12  0.000050   -0.09   -127.21   
   203. D(H  33,C   6,C   5,C   4)    -63.85 -0.000000   -0.06    -63.91   
   204. D(C   7,C   6,C   5,C   4)    117.92  0.000002   -0.05    117.87   
   205. D(C   7,C   6,C   5,H  32)     -4.76 -0.000043   -0.05     -4.81   
   206. D(H  33,C   6,C   5,C   8)     51.11  0.000048   -0.10     51.01   
   207. D(H  35,C   7,C   6,C   5)     -1.75 -0.000057    0.06     -1.68   
   208. D(H  34,C   7,C   6,H  33)      0.08  0.000006    0.01      0.09   
   209. D(H  34,C   7,C   6,C   5)    178.28  0.000003    0.00    178.28   
   210. D(H  35,C   7,C   6,H  33)   -179.95 -0.000054    0.07   -179.88   
   211. D(H  36,C   8,C   5,C   4)    -76.42  0.000012    0.06    -76.36   
   212. D(H  36,C   8,C   5,C   6)    160.40 -0.000127    0.12    160.52   
   213. D(C   9,C   8,C   5,H  32)    157.26 -0.000004    0.07    157.32   
   214. D(C   9,C   8,C   5,C   6)    -82.25 -0.000112    0.11    -82.15   
   215. D(C   9,C   8,C   5,C   4)     40.93  0.000028    0.05     40.97   
   216. D(H  36,C   8,C   5,H  32)     39.91 -0.000020    0.08     39.99   
   217. D(C  10,C   9,C   8,H  37)     73.26 -0.000016    0.07     73.33   
   218. D(C  10,C   9,C   8,C   5)   -163.98 -0.000049    0.09   -163.89   
   219. D(C   2,C   9,C   8,H  37)   -162.12 -0.000028    0.07   -162.04   
   220. D(C   2,C   9,C   8,H  36)     77.68 -0.000027    0.08     77.75   
   221. D(C   2,C   9,C   8,C   5)    -39.35 -0.000061    0.09    -39.26   
   222. D(C  10,C   9,C   2,C   4)    149.52  0.000043   -0.18    149.34   
   223. D(C  10,C   9,C   2,C   1)    -94.88  0.000055   -0.17    -95.06   
   224. D(C   8,C   9,C   2,C   4)     21.94  0.000055   -0.18     21.76   
   225. D(C   8,C   9,C   2,H   3)   -100.50  0.000016   -0.18   -100.68   
   226. D(C  10,C   9,C   8,H  36)    -46.95 -0.000015    0.08    -46.87   
   227. D(C   8,C   9,C   2,C   1)    137.54  0.000068   -0.17    137.36   
   228. D(C  10,C   9,C   2,H   3)     27.08  0.000004   -0.18     26.90   
   229. D(H  39,C  10,C   9,C   8)    174.88  0.000003    0.02    174.91   
   230. D(H  39,C  10,C   9,C   2)     55.61 -0.000013    0.01     55.63   
   231. D(C  11,C  10,C   9,H  38)    116.14  0.000024    0.00    116.14   
   232. D(C  11,C  10,C   9,C   8)     -5.95  0.000002    0.01     -5.94   
   233. D(C  11,C  10,C   9,C   2)   -125.22 -0.000013    0.01   -125.22   
   234. D(H  41,C  11,C  10,H  39)    179.30 -0.000007    0.00    179.30   
   235. D(H  41,C  11,C  10,C   9)      0.17 -0.000006    0.01      0.18   
   236. D(H  40,C  11,C  10,H  39)     -0.33 -0.000004    0.00     -0.32   
   237. D(H  40,C  11,C  10,C   9)   -179.45 -0.000003    0.01   -179.44   
   238. D(C  30,N  13,C   1,C   2)     -0.53 -0.000044    0.09     -0.44   
   239. D(C  30,N  13,C   1,O   0)    179.00 -0.000010    0.02    179.02   
   240. D(C  14,N  13,C   1,C   2)   -171.67 -0.000016    0.04   -171.63   
   241. D(C  14,N  13,C   1,O   0)      7.87  0.000018   -0.03      7.83   
   242. D(H  43,C  14,N  13,C   1)     46.61 -0.000071   -0.05     46.56   
   243. D(H  42,C  14,N  13,C  30)     -8.20 -0.000026   -0.11     -8.31   
   244. D(H  42,C  14,N  13,C   1)    161.98 -0.000051   -0.05    161.92   
   245. D(C  15,C  14,N  13,C  30)    115.52 -0.000062   -0.07    115.45   
   246. D(C  15,C  14,N  13,C   1)    -74.30 -0.000087   -0.01    -74.32   
   247. D(C  16,C  15,C  14,N  13)    -55.73 -0.000014    0.02    -55.71   
   248. D(H  44,C  15,C  14,H  43)    -52.11 -0.000062    0.08    -52.03   
   249. D(H  44,C  15,C  14,H  42)   -170.47 -0.000092    0.08   -170.38   
   250. D(H  44,C  15,C  14,N  13)     68.01 -0.000041    0.04     68.05   
   251. D(C  16,C  15,C  14,H  43)   -175.85 -0.000036    0.06   -175.78   
   252. D(C  16,C  15,C  14,H  42)     65.80 -0.000066    0.06     65.86   
   253. D(H  46,C  16,C  15,H  45)   -166.74 -0.000042   -0.09   -166.83   
   254. D(H  46,C  16,C  15,H  44)    -50.73  0.000038   -0.12    -50.85   
   255. D(H  46,C  16,C  15,C  14)     73.38 -0.000002   -0.11     73.27   
   256. D(C  17,C  16,C  15,H  45)     71.46 -0.000035   -0.07     71.39   
   257. D(C  17,C  16,C  15,H  44)   -172.53  0.000045   -0.10   -172.63   
   258. D(C  17,C  16,C  15,C  14)    -48.42  0.000005   -0.09    -48.51   
   259. D(H  48,C  17,C  16,H  47)    -51.91  0.000046   -0.18    -52.09   
   260. D(H  48,C  17,C  16,H  46)     62.64  0.000045   -0.17     62.47   
   261. D(H  48,C  17,C  16,C  15)   -173.96  0.000017   -0.18   -174.13   
   262. D(O  18,C  17,C  16,H  47)     68.79  0.000005   -0.17     68.62   
   263. D(O  18,C  17,C  16,H  46)   -176.66  0.000004   -0.16   -176.82   
   264. D(O  18,C  17,C  16,C  15)    -53.25 -0.000025   -0.17    -53.42   
   265. D(C  19,O  18,C  17,H  49)     47.62 -0.000068    0.03     47.64   
   266. D(C  19,O  18,C  17,H  48)    -69.99 -0.000053    0.01    -69.98   
   267. D(C  19,O  18,C  17,C  16)    169.44 -0.000104    0.00    169.45   
   268. D(H  50,C  19,O  18,C  17)      3.55 -0.000134    0.42      3.97   
   269. D(C  28,C  19,O  18,C  17)    121.78 -0.000129    0.41    122.19   
   270. D(C  20,C  19,O  18,C  17)   -117.55 -0.000104    0.39   -117.16   
   271. D(C  22,C  20,C  19,H  50)     63.49 -0.000031   -0.02     63.47   
   272. D(C  22,C  20,C  19,C  28)    -54.29  0.000003   -0.02    -54.31   
   273. D(C  22,C  20,C  19,O  18)   -175.10 -0.000094    0.01   -175.09   
   274. D(O  21,C  20,C  19,H  50)    -61.88 -0.000043   -0.03    -61.91   
   275. D(O  21,C  20,C  19,C  28)   -179.66 -0.000009   -0.03   -179.69   
   276. D(O  21,C  20,C  19,O  18)     59.53 -0.000106    0.00     59.53   
   277. D(H  52,O  21,C  20,H  51)    155.22 -0.000059    0.14    155.37   
   278. D(H  52,O  21,C  20,C  22)    -87.61 -0.000050    0.13    -87.48   
   279. D(H  52,O  21,C  20,C  19)     36.54 -0.000021    0.13     36.67   
   280. D(O  25,C  22,C  20,H  51)    -60.98  0.000031    0.00    -60.98   
   281. D(O  25,C  22,C  20,O  21)   -176.62  0.000014    0.03   -176.60   
   282. D(O  25,C  22,C  20,C  19)     56.67 -0.000009    0.01     56.68   
   283. D(C  23,C  22,C  20,H  51)     57.77  0.000025    0.01     57.78   
   284. D(C  23,C  22,C  20,O  21)    -57.87  0.000008    0.03    -57.84   
   285. D(C  23,C  22,C  20,C  19)    175.42 -0.000015    0.02    175.44   
   286. D(H  54,C  23,C  22,H  53)     68.68 -0.000000    0.00     68.68   
   287. D(H  54,C  23,C  22,O  25)    -49.74 -0.000006    0.01    -49.73   
   288. D(H  54,C  23,C  22,C  20)   -169.98 -0.000004    0.00   -169.97   
   289. D(O  24,C  23,C  22,H  53)    -49.65  0.000017    0.00    -49.65   
   290. D(O  24,C  23,C  22,O  25)   -168.07  0.000011    0.01   -168.06   
   291. D(O  24,C  23,C  22,C  20)     71.69  0.000013    0.00     71.69   
   292. D(H  56,O  24,C  23,H  55)     67.27 -0.000034   -0.14     67.13   
   293. D(H  56,O  24,C  23,H  54)   -174.95 -0.000001   -0.15   -175.10   
   294. D(H  56,O  24,C  23,C  22)    -56.06  0.000029   -0.15    -56.22   
   295. D(C  26,O  25,C  22,H  53)     57.40 -0.000027    0.03     57.43   
   296. D(C  26,O  25,C  22,C  23)    174.43  0.000009    0.01    174.44   
   297. D(C  26,O  25,C  22,C  20)    -62.66  0.000016    0.01    -62.65   
   298. D(H  57,C  26,O  25,C  22)    -57.32 -0.000021   -0.03    -57.35   
   299. D(C  28,C  26,O  25,C  22)     62.58  0.000001   -0.03     62.55   
   300. D(O  27,C  26,O  25,C  22)   -176.86  0.000013   -0.04   -176.89   
   301. D(H  58,O  27,C  26,H  57)     73.26  0.000054   -0.22     73.04   
   302. D(H  58,O  27,C  26,C  28)    -48.57  0.000008   -0.20    -48.77   
   303. D(H  58,O  27,C  26,O  25)   -167.64  0.000017   -0.20   -167.84   
   304. D(C  19,C  28,C  26,O  25)    -57.28 -0.000015    0.02    -57.27   
   305. D(O  29,C  28,C  19,H  50)     55.93 -0.000022    0.01     55.94   
   306. D(O  29,C  28,C  19,C  20)    174.25 -0.000009    0.02    174.26   
   307. D(O  29,C  28,C  19,O  18)    -63.18 -0.000035    0.02    -63.16   
   308. D(C  26,C  28,C  19,H  50)    -63.52 -0.000012    0.01    -63.52   
   309. D(C  26,C  28,C  19,C  20)     54.79  0.000000    0.02     54.81   
   310. D(C  19,C  28,C  26,O  27)   -174.75  0.000017    0.02   -174.74   
   311. D(C  26,C  28,C  19,O  18)    177.36 -0.000025    0.02    177.39   
   312. D(O  29,C  28,C  26,H  57)    -59.25 -0.000025    0.04    -59.22   
   313. D(O  29,C  28,C  26,O  27)     63.16  0.000004    0.03     63.19   
   314. D(O  29,C  28,C  26,O  25)   -179.37 -0.000028    0.03   -179.34   
   315. D(C  19,C  28,C  26,H  57)     62.83 -0.000012    0.03     62.86   
   316. D(H  60,O  29,C  28,H  59)    -54.04  0.000043   -0.30    -54.34   
   317. D(H  60,O  29,C  28,C  26)   -171.06  0.000052   -0.30   -171.36   
   318. D(H  60,O  29,C  28,C  19)     67.82  0.000052   -0.30     67.51   
   319. D(O  31,C  30,N  13,C   1)   -175.09 -0.000076    0.09   -175.00   
   320. D(C   4,C  30,N  13,C  14)    175.14  0.000082    0.05    175.19   
   321. D(C   4,C  30,N  13,C   1)      4.15  0.000080    0.00      4.15   
   322. D(O  31,C  30,C   4,C   5)    -68.76  0.000103   -0.22    -68.98   
   323. D(O  31,C  30,C   4,C   2)    173.37  0.000077   -0.18    173.18   
   324. D(N  13,C  30,C   4,H  12)   -125.40 -0.000013   -0.13   -125.53   
   325. D(N  13,C  30,C   4,C   5)    112.01 -0.000054   -0.13    111.88   
   326. D(O  31,C  30,N  13,C  14)     -4.10 -0.000075    0.14     -3.96   
   327. D(N  13,C  30,C   4,C   2)     -5.86 -0.000079   -0.10     -5.96   
    ----------------------------------------------------------------------------

Geometry step timings:
Preparation and reading OPT file:      0.003 s ( 8.498 %)
Internal coordinates            :      0.000 s ( 0.151 %)
B/P matrices and projection     :      0.011 s (38.432 %)
Hessian update/contruction      :      0.004 s (12.258 %)
Making the step                 :      0.007 s (24.532 %)
Converting the step to Cartesian:      0.001 s ( 3.144 %)
Storing new data                :      0.000 s ( 0.912 %)
Checking convergence            :      0.000 s ( 0.178 %)
Final printing                  :      0.004 s (11.884 %)
Total time                      :      0.030 s

Time for energy+gradient        :    520.552 s
Time for complete geometry iter :    520.654 s

         *************************************************************
         *                GEOMETRY OPTIMIZATION CYCLE  11            *
         *************************************************************
---------------------------------
CARTESIAN COORDINATES (ANGSTROEM)
---------------------------------
  O     -2.725241    2.670644    1.776594
  C     -2.524569    1.511662    1.592218
  C     -3.542114    0.393222    1.648118
  H     -3.920723    0.345769    2.662594
  C     -2.751281   -0.865747    1.263203
  C     -3.413809   -1.433632   -0.029931
  C     -2.786616   -0.978068   -1.325076
  C     -2.217358   -1.784136   -2.199870
  C     -4.860248   -0.914842    0.114168
  C     -4.712965    0.520009    0.639175
  C     -5.933385    1.173230    1.233340
  C     -7.157063    0.681846    1.255673
  H     -2.781380   -1.624165    2.035422
  N     -1.286408    0.970253    1.298095
  C     -0.053292    1.760984    1.347704
  C      0.144094    2.745598    0.193935
  C      0.100567    2.175205   -1.227940
  C      0.947012    0.936917   -1.476078
  O      2.276932    1.169417   -1.077302
  C      3.104580    0.037386   -1.038950
  C      3.611450   -0.254652    0.370746
  O      2.589720   -0.486815    1.304796
  C      4.604333   -1.426094    0.318646
  C      5.256166   -1.728412    1.663753
  O      4.368691   -2.312031    2.568157
  O      5.646045   -1.110607   -0.571154
  C      5.247645   -0.923286   -1.884100
  O      6.393947   -0.696159   -2.613209
  C      4.298181    0.262483   -1.954418
  O      3.907485    0.408728   -3.293045
  C     -1.315096   -0.397593    1.150842
  O     -0.357518   -1.093813    0.979610
  H     -3.382724   -2.515454   -0.007208
  H     -2.838643    0.075505   -1.550833
  H     -1.807310   -1.415473   -3.123018
  H     -2.138576   -2.843891   -2.029436
  H     -5.383960   -1.519779    0.849204
  H     -5.414187   -0.971196   -0.815631
  H     -4.385761    1.156882   -0.180189
  H     -5.749897    2.145042    1.662735
  H     -7.966005    1.234118    1.698960
  H     -7.409502   -0.275263    0.835468
  H      0.762224    1.060789    1.398037
  H     -0.071588    2.318474    2.275197
  H     -0.593839    3.535695    0.269592
  H      1.114114    3.202749    0.358295
  H     -0.921792    1.922278   -1.498578
  H      0.408855    2.961689   -1.911020
  H      0.920236    0.685557   -2.534656
  H      0.545447    0.091839   -0.935751
  H      2.555029   -0.828507   -1.404725
  H      4.141123    0.619685    0.730351
  H      1.849887   -0.963493    0.942969
  H      4.084497   -2.324862   -0.014442
  H      6.057510   -2.434643    1.499433
  H      5.696227   -0.816435    2.062685
  H      3.618544   -1.738892    2.667282
  H      4.737319   -1.817888   -2.245983
  H      6.137951   -0.379576   -3.471281
  H      4.844652    1.139688   -1.620215
  H      3.423894    1.219377   -3.382652

----------------------------
CARTESIAN COORDINATES (A.U.)
----------------------------
  NO LB      ZA    FRAG     MASS         X           Y           Z
   0 O     8.0000    0    15.999   -5.149960    5.046786    3.357276
   1 C     6.0000    0    12.011   -4.770745    2.856627    3.008857
   2 C     6.0000    0    12.011   -6.693625    0.743083    3.114492
   3 H     1.0000    0     1.008   -7.409092    0.653409    5.031574
   4 C     6.0000    0    12.011   -5.199168   -1.636025    2.387109
   5 C     6.0000    0    12.011   -6.451164   -2.709171   -0.056562
   6 C     6.0000    0    12.011   -5.265940   -1.848280   -2.504031
   7 C     6.0000    0    12.011   -4.190200   -3.371528   -4.157152
   8 C     6.0000    0    12.011   -9.184538   -1.728800    0.215746
   9 C     6.0000    0    12.011   -8.906213    0.982675    1.207865
  10 C     6.0000    0    12.011  -11.212473    2.217083    2.330676
  11 C     6.0000    0    12.011  -13.524890    1.288503    2.372877
  12 H     1.0000    0     1.008   -5.256047   -3.069228    3.846391
  13 N     7.0000    0    14.007   -2.430960    1.833512    2.453044
  14 C     6.0000    0    12.011   -0.100708    3.327778    2.546791
  15 C     6.0000    0    12.011    0.272298    5.188428    0.366484
  16 C     6.0000    0    12.011    0.190044    4.110541   -2.320470
  17 C     6.0000    0    12.011    1.789594    1.770517   -2.789383
  18 O     8.0000    0    15.999    4.302778    2.209878   -2.035805
  19 C     6.0000    0    12.011    5.866806    0.070650   -1.963330
  20 C     6.0000    0    12.011    6.824651   -0.481222    0.700609
  21 O     8.0000    0    15.999    4.893861   -0.919946    2.465707
  22 C     6.0000    0    12.011    8.700928   -2.694927    0.602154
  23 C     6.0000    0    12.011    9.932714   -3.266225    3.144038
  24 O     8.0000    0    15.999    8.255630   -4.369106    4.853113
  25 O     8.0000    0    15.999   10.669479   -2.098743   -1.079325
  26 C     6.0000    0    12.011    9.916611   -1.744757   -3.560432
  27 O     8.0000    0    15.999   12.082808   -1.315550   -4.938249
  28 C     6.0000    0    12.011    8.122385    0.496021   -3.693315
  29 O     8.0000    0    15.999    7.384076    0.772384   -6.222953
  30 C     6.0000    0    12.011   -2.485172   -0.751342    2.174776
  31 O     8.0000    0    15.999   -0.675611   -2.067008    1.851195
  32 H     1.0000    0     1.008   -6.392423   -4.753519   -0.013622
  33 H     1.0000    0     1.008   -5.364258    0.142683   -2.930649
  34 H     1.0000    0     1.008   -3.415321   -2.674857   -5.901648
  35 H     1.0000    0     1.008   -4.041322   -5.374175   -3.835078
  36 H     1.0000    0     1.008  -10.174209   -2.871965    1.604763
  37 H     1.0000    0     1.008  -10.231330   -1.835295   -1.541320
  38 H     1.0000    0     1.008   -8.287888    2.186191   -0.340509
  39 H     1.0000    0     1.008  -10.865731    4.053541    3.142114
  40 H     1.0000    0     1.008  -15.053569    2.332146    3.210569
  41 H     1.0000    0     1.008  -14.001929   -0.520172    1.578806
  42 H     1.0000    0     1.008    1.440395    2.004600    2.641907
  43 H     1.0000    0     1.008   -0.135282    4.381280    4.299500
  44 H     1.0000    0     1.008   -1.122194    6.681495    0.509454
  45 H     1.0000    0     1.008    2.105370    6.052319    0.677079
  46 H     1.0000    0     1.008   -1.741935    3.632578   -2.831902
  47 H     1.0000    0     1.008    0.772624    5.596781   -3.611305
  48 H     1.0000    0     1.008    1.738995    1.295514   -4.789805
  49 H     1.0000    0     1.008    1.030746    0.173550   -1.768313
  50 H     1.0000    0     1.008    4.828305   -1.565651   -2.654545
  51 H     1.0000    0     1.008    7.825588    1.171035    1.380164
  52 H     1.0000    0     1.008    3.495779   -1.820737    1.781954
  53 H     1.0000    0     1.008    7.718581   -4.393353   -0.027291
  54 H     1.0000    0     1.008   11.447034   -4.600809    2.833518
  55 H     1.0000    0     1.008   10.764308   -1.542839    3.897909
  56 H     1.0000    0     1.008    6.838056   -3.286029    5.040433
  57 H     1.0000    0     1.008    8.952235   -3.435311   -4.244293
  58 H     1.0000    0     1.008   11.599046   -0.717294   -6.559770
  59 H     1.0000    0     1.008    9.155066    2.153698   -3.061763
  60 H     1.0000    0     1.008    6.470221    2.304289   -6.392286

--------------------------------
INTERNAL COORDINATES (ANGSTROEM)
--------------------------------
 O      0   0   0     0.000000000000     0.00000000     0.00000000
 C      1   0   0     1.190589356359     0.00000000     0.00000000
 C      2   1   0     1.513085632587   126.90466966     0.00000000
 H      3   2   1     1.083862940098   107.56899581   296.69416805
 C      3   2   1     1.535766469363   104.50097063   177.21846557
 C      5   3   2     1.560010555010   106.70713275   240.82140365
 C      6   5   3     1.509407719296   115.14560775    93.93187291
 C      7   6   5     1.318735523526   124.33831939   117.86576128
 C      6   5   3     1.543403078188   101.43519078   333.28162152
 C      9   6   5     1.534966335329   104.84588013    40.97089960
 C     10   9   6     1.506371244206   117.55028289   196.11092197
 C     11  10   9     1.318842388176   126.64272778   354.06053516
 H      5   3   2     1.082786601396   112.40369905   121.47594242
 N      2   1   3     1.382995220516   124.39637652   180.63310767
 C     14   2   1     1.465705747501   122.33107857     7.82909161
 C     15  14   2     1.529577491886   115.48754246   285.68347356
 C     16  15  14     1.532635507571   117.16535599   304.29702766
 C     17  16  15     1.520328266792   116.02287385   311.48891533
 O     18  17  16     1.407751846217   110.19513017   306.57569730
 C     19  18  17     1.402841673703   115.58380984   169.44768904
 C     20  19  18     1.526252217928   112.06072102   242.83935324
 O     21  20  19     1.403666947417   113.86161597    59.53540882
 C     21  20  19     1.536492477289   109.21826651   184.91477797
 C     23  21  20     1.524989973205   113.41838870   175.43632870
 O     24  23  21     1.395051732386   112.50981892    71.69326635
 O     23  21  20     1.405859692471   109.21963026    56.67887097
 C     26  23  21     1.384787586907   114.66203594   297.35042282
 O     27  26  23     1.377387026055   106.54423787   183.10448042
 C     27  26  23     1.520681703428   109.20506445    62.54719538
 O     29  27  26     1.402124377982   107.42490549   180.65899841
 C     14   2   1     1.376047698211   113.15600939   179.02330388
 O     31  14   2     1.196244097433   125.25141674   185.00276833
 H      6   5   3     1.082507108228   109.52394888   215.74168910
 H      7   6   5     1.078743172786   117.02011447   296.08730750
 H      8   7   6     1.075292114859   121.63766930   178.28304512
 H      8   7   6     1.076260085135   121.89877673   358.31607779
 H      9   6   5     1.086508538618   109.13185801   283.63978900
 H      9   6   5     1.083766639259   112.42251430   164.13662505
 H     10   9   6     1.088130235004   108.56734767    75.01253193
 H     11  10   9     1.078177040679   114.20916105   174.90509841
 H     12  11  10     1.075125511679   120.91160158   180.55719243
 H     12  11  10     1.075339720497   122.87568794     0.18051434
 H     15  14   2     1.076045660404   106.74707520   161.92401354
 H     15  14   2     1.082300091594   107.01800106    46.55992102
 H     16  15  14     1.083753890155   109.19396247    68.05041174
 H     16  15  14     1.084869111612   105.80478320   182.81017694
 H     17  16  15     1.087398351213   110.13088172    73.27084397
 H     17  16  15     1.086368899587   107.80887219   188.70851664
 H     18  17  16     1.088340738001   109.46095303   185.86477866
 H     18  17  16     1.080446834537   110.39609466    68.02308180
 H     20  19  18     1.088838428266   109.55872741     3.96781810
 H     21  20  19     1.083666801786   108.32707669   302.42532561
 H     22  21  20     0.951574488609   113.31331423    36.66889257
 H     23  21  20     1.090394872756   109.31212270   296.06921417
 H     24  23  21     1.080701647193   108.20272480   190.02571342
 H     24  23  21     1.088347977728   109.27015660   306.98925020
 H     25  24  23     0.949229400510   108.53233133   303.78384256
 H     27  26  23     1.091653005937   109.75154591   302.65336998
 H     28  27  26     0.949761172217   107.99224844   192.16009949
 H     29  27  26     1.086191144187   107.54060585    61.73817239
 H     30  29  27     0.948178558832   108.75450525   188.64309464

---------------------------
INTERNAL COORDINATES (A.U.)
---------------------------
 O      0   0   0     0.000000000000     0.00000000     0.00000000
 C      1   0   0     2.249887821480     0.00000000     0.00000000
 C      2   1   0     2.859317462761   126.90466966     0.00000000
 H      3   2   1     2.048204123492   107.56899581   296.69416805
 C      3   2   1     2.902178032756   104.50097063   177.21846557
 C      5   3   2     2.947992714995   106.70713275   240.82140365
 C      6   5   3     2.852367213897   115.14560775    93.93187291
 C      7   6   5     2.492048982537   124.33831939   117.86576128
 C      6   5   3     2.916609132026   101.43519078   333.28162152
 C      9   6   5     2.900665998560   104.84588013    40.97089960
 C     10   9   6     2.846629107564   117.55028289   196.11092197
 C     11  10   9     2.492250927460   126.64272778   354.06053516
 H      5   3   2     2.046170138117   112.40369905   121.47594242
 N      2   1   3     2.613482211298   124.39637652   180.63310767
 C     14   2   1     2.769782455691   122.33107857     7.82909161
 C     15  14   2     2.890482560274   115.48754246   285.68347356
 C     16  15  14     2.896261372432   117.16535599   304.29702766
 C     17  16  15     2.873004057897   116.02287385   311.48891533
 O     18  17  16     2.660265453873   110.19513017   306.57569730
 C     19  18  17     2.650986572550   115.58380984   169.44768904
 C     20  19  18     2.884198703175   112.06072102   242.83935324
 O     21  20  19     2.652546113856   113.86161597    59.53540882
 C     21  20  19     2.903549988907   109.21826651   184.91477797
 C     23  21  20     2.881813406333   113.41838870   175.43632870
 O     24  23  21     2.636265716861   112.50981892    71.69326635
 O     23  21  20     2.656689801489   109.21963026    56.67887097
 C     26  23  21     2.616869292908   114.66203594   297.35042282
 O     27  26  23     2.602884259659   106.54423787   183.10448042
 C     27  26  23     2.873671956344   109.20506445    62.54719538
 O     29  27  26     2.649631080081   107.42490549   180.65899841
 C     14   2   1     2.600353296831   113.15600939   179.02330388
 O     31  14   2     2.260573733467   125.25141674   185.00276833
 H      6   5   3     2.045641972575   109.52394888   215.74168910
 H      7   6   5     2.038529165403   117.02011447   296.08730750
 H      8   7   6     2.032007611049   121.63766930   178.28304512
 H      8   7   6     2.033836809775   121.89877673   358.31607779
 H      9   6   5     2.053203580155   109.13185801   283.63978900
 H      9   6   5     2.048022141279   112.42251430   164.13662505
 H     10   9   6     2.056268142196   108.56734767    75.01253193
 H     11  10   9     2.037459330766   114.20916105   174.90509841
 H     12  11  10     2.031692776664   120.91160158   180.55719243
 H     12  11  10     2.032097572666   122.87568794     0.18051434
 H     15  14   2     2.033431605757   106.74707520   161.92401354
 H     15  14   2     2.045250767830   107.01800106    46.55992102
 H     16  15  14     2.047998048964   109.19396247    68.05041174
 H     16  15  14     2.050105512097   105.80478320   182.81017694
 H     17  16  15     2.054885082271   110.13088172    73.27084397
 H     17  16  15     2.052939700628   107.80887219   188.70851664
 H     18  17  16     2.056665935211   109.46095303   185.86477866
 H     18  17  16     2.041748619537   110.39609466    68.02308180
 H     20  19  18     2.057606433512   109.55872741     3.96781810
 H     21  20  19     2.047833475797   108.32707669   302.42532561
 H     22  21  20     1.798215179496   113.31331423    36.66889257
 H     23  21  20     2.060547687341   109.31212270   296.06921417
 H     24  23  21     2.042230145672   108.20272480   190.02571342
 H     24  23  21     2.056679616312   109.27015660   306.98925020
 H     25  24  23     1.793783605230   108.53233133   303.78384256
 H     27  26  23     2.062925214492   109.75154591   302.65336998
 H     28  27  26     1.794788508122   107.99224844   192.16009949
 H     29  27  26     2.052603791605   107.54060585    61.73817239
 H     30  29  27     1.791797802248   108.75450525   188.64309464

------------------------------------------------------------------------------
                   ___                                                        
                  /   \      - P O W E R E D   B Y -                         
                 /     \                                                     
                 |  |  |   _    _      __       _____    __    __             
                 |  |  |  | |  | |    /  \     |  _  \  |  |  /  |          
                  \  \/   | |  | |   /    \    | | | |  |  | /  /          
                 / \  \   | |__| |  /  /\  \   | |_| |  |  |/  /          
                |  |  |   |  __  | /  /__\  \  |    /   |      \           
                |  |  |   | |  | | |   __   |  |    \   |  |\   \          
                \     /   | |  | | |  |  |  |  | |\  \  |  | \   \       
                 \___/    |_|  |_| |__|  |__|  |_| \__\ |__|  \__/        
                                                                              
                      - O R C A' S   B I G   F R I E N D -                    
                                      &                                       
                       - I N T E G R A L  F E E D E R -                       
                                                                              
 v1 FN, 2020, v2 2021, v3 2022-2024                                           
------------------------------------------------------------------------------


----------------------
SHARK INTEGRAL PACKAGE
----------------------

Number of atoms                             ...     61
Number of basis functions                   ...    482
Number of shells                            ...    242
Maximum angular momentum                    ...      2
Integral batch strategy                     ... SHARK/LIBINT Hybrid
RI-J (if used) integral strategy            ... SPLIT-RIJ (Revised 2003 algorithm where possible)
Printlevel                                  ...      1
Contraction scheme used                     ... SEGMENTED contraction
Prescreening option                         ... SCHWARTZ
   Thresh                                   ... 2.500e-11
   Tcut                                     ... 2.500e-12
   Tpresel                                  ... 2.500e-12 
Coulomb Range Separation                    ... NOT USED
Exchange Range Separation                   ... NOT USED
Multipole approximations                    ... NOT USED
Finite Nucleus Model                        ... NOT USED
CABS basis                                  ... NOT available
Auxiliary Coulomb fitting basis             ... NOT available
Auxiliary J/K fitting basis                 ... NOT available
Auxiliary Correlation fitting basis         ... NOT available
Auxiliary 'external' fitting basis          ... NOT available

Checking pre-screening integrals            ... done (  0.0 sec) Dimension = 242
Check shell pair data                       ... done (  0.0 sec)
Shell pair information
Shell pair cut-off parameter TPreSel        ...   2.5e-12
Total number of shell pairs                 ...     29403
Shell pairs after pre-screening             ...     18286
Total number of primitive shell pairs       ...    165748
Primitive shell pairs kept                  ...     54377
          la=0 lb=0:   6956 shell pairs
          la=1 lb=0:   6132 shell pairs
          la=1 lb=1:   1360 shell pairs
          la=2 lb=0:   2467 shell pairs
          la=2 lb=1:   1138 shell pairs
          la=2 lb=2:    233 shell pairs

Calculating one electron integrals          ... done (  0.2 sec)
Calculating Nuclear repulsion               ... done (  0.0 sec) ENN=   3221.341984614746 Eh

Diagonalization of the overlap matrix:
Smallest eigenvalue                        ... 1.170e-03
Time for diagonalization                   ...    0.022 sec
Threshold for overlap eigenvalues          ... 1.000e-07
Number of eigenvalues below threshold      ... 0
Time for construction of square roots      ...    0.011 sec
Total time needed                          ...    0.035 sec

-------------------
DFT GRID GENERATION
-------------------

General Integration Accuracy     IntAcc      ... 4.388
Radial Grid Type                 RadialGrid  ... OptM3 with GC (2021)
Angular Grid (max. ang.)         AngularGrid ... 4 (Lebedev-302)
Angular grid pruning method      GridPruning ... 4 (adaptive)
Weight generation scheme         WeightScheme... mBecke (2022)
Basis function cutoff            BFCut       ... 1.0000e-11
Integration weight cutoff        WCut        ... 1.0000e-14
Partially contracted basis set               ... off
Rotationally invariant grid construction     ... off
Angular grids for H and He will be reduced by one unit

Total number of grid points                  ...   276067
Total number of batches                      ...     4343
Average number of points per batch           ...       63
Average number of grid points per atom       ...     4526
Initializing property integral containers    ... done (  0.0 sec)

SHARK setup successfully completed in   4.6 seconds

Maximum memory used throughout the entire STARTUP-calculation: 121.6 MB
Occupation numbers will be reassigned to an Aufbau configuration
             **** ENERGY FILE WAS UPDATED (monomer_hf_opt.en.tmp) ****
Finished Guess after   0.2 sec
Maximum memory used throughout the entire GUESS-calculation: 46.2 MB
----------------------------------------D-I-I-S--------------------------------------------
Iteration    Energy (Eh)           Delta-E    RMSDP     MaxDP     DIISErr   Damp  Time(sec)
-------------------------------------------------------------------------------------------
               ***  Starting incremental Fock matrix formation  ***
                              *** Initializing SOSCF ***
---------------------------------------S-O-S-C-F--------------------------------------
Iteration    Energy (Eh)           Delta-E    RMSDP     MaxDP     MaxGrad    Time(sec)
--------------------------------------------------------------------------------------
    1    -1466.5861489056360369     0.00e+00  2.99e-05  1.30e-03  6.36e-05    51.3
               *** Restarting incremental Fock matrix formation ***
    2    -1466.5862402971142728    -9.14e-05  1.61e-05  5.10e-04  1.68e-04    51.4
    3    -1466.5862567165941073    -1.64e-05  9.73e-06  3.29e-04  7.45e-05    34.1
    4    -1466.5862589943126295    -2.28e-06  1.31e-06  7.45e-05  1.70e-05    32.4
    5    -1466.5862590420656488    -4.78e-08  7.22e-07  5.09e-05  8.75e-06    26.4
    6    -1466.5862590567885491    -1.47e-08  2.30e-07  7.80e-06  2.97e-06    24.7
    7    -1466.5862590568140149    -2.55e-11  1.07e-07  4.26e-06  1.48e-06    21.5
                 **** Energy Check signals convergence ****

               *****************************************************
               *                     SUCCESS                       *
               *           SCF CONVERGED AFTER   7 CYCLES          *
               *****************************************************

             **** ENERGY FILE WAS UPDATED (monomer_hf_opt.en.tmp) ****

----------------
TOTAL SCF ENERGY
----------------

Total Energy       :      -1466.58625905681401 Eh          -39907.84098 eV

Components:
Nuclear Repulsion  :       3221.34198461474625 Eh           87657.17181 eV
Electronic Energy  :      -4687.92824367156027 Eh         -127565.01279 eV
One Electron Energy:      -8417.44376415838815 Eh         -229050.28951 eV
Two Electron Energy:       3729.51552048682788 Eh          101485.27672 eV

Virial components:
Potential Energy   :      -2933.26498342303512 Eh          -79818.19808 eV
Kinetic Energy     :       1466.67872436622133 Eh           39910.35709 eV
Virial Ratio       :          1.99993695598915

---------------
SCF CONVERGENCE
---------------

  Last Energy change         ...    2.5466e-11  Tolerance :   1.0000e-08
  Last MAX-Density change    ...    4.2649e-06  Tolerance :   1.0000e-07
  Last RMS-Density change    ...    1.0673e-07  Tolerance :   5.0000e-09
  Last DIIS Error            ...    2.1530e-03  Tolerance :   5.0000e-07
  Last Orbital Gradient      ...    1.4798e-06  Tolerance :   1.0000e-05
  Last Orbital Rotation      ...    4.0658e-06  Tolerance :   1.0000e-05


Total SCF time: 0 days 0 hours 4 min 1 sec 
Finished LeanSCF after 241.9 sec

Maximum memory used throughout the entire LEANSCF-calculation: 48.8 MB

-------------------------   --------------------
FINAL SINGLE POINT ENERGY     -1466.586259056814
-------------------------   --------------------

------------------------------------------------------------------------------
                         ORCA SCF GRADIENT CALCULATION
------------------------------------------------------------------------------

Nuc. rep. gradient        (SHARK) ... done (  0.0 sec)
HCore & Overlap gradient  (SHARK) ... done (  3.0 sec)
Two-electron gradient     (SHARK) ... done (178.8 sec)

------------------
CARTESIAN GRADIENT
------------------

   1   O   :   -0.000004573   -0.000134215   -0.000034855
   2   C   :    0.000061233    0.000055207    0.000187640
   3   C   :   -0.000058705    0.000071251   -0.000013198
   4   H   :    0.000023496    0.000004689   -0.000010022
   5   C   :   -0.000104883   -0.000029623   -0.000181896
   6   C   :    0.000083914   -0.000128708    0.000039711
   7   C   :   -0.000003655    0.000131583   -0.000131568
   8   C   :   -0.000109682    0.000118779    0.000098651
   9   C   :   -0.000048434    0.000017599    0.000025732
  10   C   :   -0.000003620   -0.000048003    0.000026682
  11   C   :   -0.000075408    0.000080131    0.000003027
  12   C   :    0.000064997   -0.000014657   -0.000011553
  13   H   :    0.000081960    0.000020574    0.000023559
  14   N   :   -0.000110025    0.000085335   -0.000076197
  15   C   :    0.000144287   -0.000002220    0.000031476
  16   C   :    0.000014334    0.000175409    0.000111850
  17   C   :    0.000049344    0.000068409   -0.000024789
  18   C   :   -0.000079650   -0.000245444   -0.000155440
  19   O   :   -0.000050707   -0.000075300    0.000173246
  20   C   :   -0.000012224    0.000002057   -0.000087544
  21   C   :    0.000046827    0.000023724    0.000007716
  22   O   :   -0.000081357   -0.000105353    0.000039879
  23   C   :   -0.000027152   -0.000035550    0.000011849
  24   C   :    0.000016613   -0.000038177    0.000079927
  25   O   :   -0.000072904    0.000078269   -0.000081553
  26   O   :   -0.000018445    0.000019996   -0.000022217
  27   C   :    0.000028955   -0.000003826   -0.000057006
  28   O   :   -0.000044749    0.000004775   -0.000087767
  29   C   :    0.000025014    0.000000234   -0.000040702
  30   O   :   -0.000106825    0.000076311    0.000044931
  31   C   :    0.000052603   -0.000128290    0.000154773
  32   O   :   -0.000058290    0.000073409    0.000017238
  33   H   :    0.000012982    0.000021321   -0.000004509
  34   H   :    0.000024021   -0.000041202    0.000026449
  35   H   :    0.000027864   -0.000145399   -0.000026944
  36   H   :    0.000027515    0.000029026   -0.000030260
  37   H   :   -0.000021718   -0.000004069   -0.000038753
  38   H   :   -0.000001892   -0.000020912    0.000019231
  39   H   :    0.000047221   -0.000026879   -0.000010098
  40   H   :    0.000004973   -0.000028678   -0.000011202
  41   H   :    0.000007815   -0.000033283   -0.000012826
  42   H   :   -0.000036414    0.000042477    0.000024715
  43   H   :   -0.000041021    0.000016948    0.000029916
  44   H   :    0.000004407   -0.000018669   -0.000008765
  45   H   :   -0.000049027   -0.000069250   -0.000016352
  46   H   :   -0.000008842   -0.000007233   -0.000068894
  47   H   :    0.000002153   -0.000012857    0.000021827
  48   H   :   -0.000036794   -0.000021449   -0.000027043
  49   H   :    0.000075595    0.000082456   -0.000013035
  50   H   :    0.000080563    0.000126509   -0.000030366
  51   H   :    0.000008532    0.000019360    0.000024635
  52   H   :   -0.000024639    0.000001675   -0.000031174
  53   H   :    0.000056628    0.000112546   -0.000027596
  54   H   :    0.000003111    0.000030187    0.000002480
  55   H   :   -0.000022331    0.000019380    0.000027274
  56   H   :   -0.000020508   -0.000006082   -0.000031001
  57   H   :    0.000122058   -0.000076260    0.000037288
  58   H   :    0.000034425    0.000011266    0.000025379
  59   H   :    0.000010052   -0.000021187    0.000115593
  60   H   :   -0.000026478   -0.000015097    0.000000730
  61   H   :    0.000117462   -0.000083018   -0.000028281

Difference to translation invariance:
           :   -0.0000000000    0.0000000000    0.0000000000

Difference to rotation invariance:
           :   -0.0000017590   -0.0000014971    0.0000012676

Norm of the Cartesian gradient     ...    0.0008919928
RMS gradient                       ...    0.0000659380
MAX gradient                       ...    0.0002454443

-------
TIMINGS
-------

Total SCF gradient time     ....      181.781 sec

Densities                   ....       0.005 sec  (  0.0%)
One electron gradient       ....       2.958 sec  (  1.6%)
Two electron gradient       ....     178.817 sec  ( 98.4%)

Maximum memory used throughout the entire SCFGRAD-calculation: 105.7 MB
------------------------------------------------------------------------------
                         ORCA GEOMETRY RELAXATION STEP
------------------------------------------------------------------------------

Reading the OPT-File                    .... done
Getting information on internals        .... done
Copying old internal coords+grads       .... done
Making the new internal coordinates     .... (2022 redundants) done
Validating the new internal coordinates .... (2022 redundants) done
Calculating the B-matrix                .... done
Calculating the G,G- and P matrices     .... done
Transforming gradient to internals      .... done
Projecting the internal gradient        .... done
Number of atoms                         ....  61
Number of internal coordinates          .... 327
Current Energy                          .... -1466.586259057 Eh
Current gradient norm                   ....     0.000891993 Eh/bohr
Maximum allowed component of the step   ....  0.300
Current trust radius                    ....  0.700
Updating the Hessian (BFGS)             .... done
Forming the augmented Hessian           .... done
Diagonalizing the augmented Hessian     .... done
Last element of RFO vector              ....  0.998392162
Lowest eigenvalues of augmented Hessian:
 -0.000009590  0.001026349  0.002602784  0.010637169  0.012235603
Length of the computed step             ....  0.056775412
The final length of the internal step   ....  0.056775412
Converting the step to Cartesian space:
 Initial RMS(Int)=    0.0031396875
Transforming coordinates:
 Iter   0:  RMS(Cart)=    0.0105200902 RMS(Int)=    0.0031309487
done
Storing new coordinates                 .... done
The predicted energy change is          ....    -0.000004811
Previously predicted energy change      ....    -0.000005237
Actually observed energy change         ....    -0.000007661
Ratio of predicted to observed change   ....     1.462996258
New trust radius                        ....     0.700000000

                                .--------------------.
          ----------------------|Geometry convergence|-------------------------
          Item                value                   Tolerance       Converged
          ---------------------------------------------------------------------
          Energy change      -0.0000076614            0.0000050000      NO
          RMS gradient        0.0000413319            0.0001000000      YES
          MAX gradient        0.0002145706            0.0003000000      YES
          RMS step            0.0031396875            0.0020000000      NO
          MAX step            0.0377593697            0.0040000000      NO
          ........................................................
          Max(Bonds)      0.0200      Max(Angles)    0.07
          Max(Dihed)        0.65      Max(Improp)    0.00
          ---------------------------------------------------------------------

The optimization has not yet converged - more geometry cycles are needed


    ---------------------------------------------------------------------------
                         Redundant Internal Coordinates
                            (Angstroem and degrees)

        Definition                    Value    dE/dq     Step     New-Value
    ----------------------------------------------------------------------------
     1. B(C   1,O   0)                1.1906 -0.000135  0.0000    1.1906   
     2. B(C   2,C   1)                1.5131  0.000016  0.0001    1.5131   
     3. B(H   3,C   2)                1.0839 -0.000018  0.0000    1.0839   
     4. B(C   4,C   2)                1.5358  0.000031 -0.0001    1.5357   
     5. B(C   5,C   4)                1.5600 -0.000019 -0.0001    1.5599   
     6. B(C   6,C   5)                1.5094  0.000077 -0.0001    1.5093   
     7. B(C   7,C   6)                1.3187 -0.000056  0.0001    1.3188   
     8. B(C   8,C   5)                1.5434  0.000054 -0.0001    1.5433   
     9. B(C   9,C   8)                1.5350  0.000019  0.0001    1.5351   
    10. B(C   9,C   2)                1.5508  0.000014  0.0001    1.5509   
    11. B(C  10,C   9)                1.5064  0.000044 -0.0001    1.5063   
    12. B(C  11,C  10)                1.3188 -0.000032  0.0000    1.3189   
    13. B(H  12,C   4)                1.0828  0.000000 -0.0000    1.0828   
    14. B(N  13,C   1)                1.3830 -0.000022  0.0001    1.3831   
    15. B(C  14,N  13)                1.4657  0.000106 -0.0002    1.4655   
    16. B(C  15,C  14)                1.5296  0.000099 -0.0001    1.5295   
    17. B(C  16,C  15)                1.5326  0.000154 -0.0004    1.5323   
    18. B(C  17,C  16)                1.5203  0.000128 -0.0004    1.5200   
    19. B(O  18,C  17)                1.4078 -0.000002  0.0001    1.4078   
    20. B(C  19,O  18)                1.4028  0.000003 -0.0001    1.4028   
    21. B(C  20,C  19)                1.5263  0.000016 -0.0001    1.5262   
    22. B(O  21,C  20)                1.4037  0.000016 -0.0001    1.4036   
    23. B(C  22,C  20)                1.5365 -0.000010  0.0001    1.5366   
    24. B(C  23,C  22)                1.5250  0.000018 -0.0001    1.5249   
    25. B(O  24,C  23)                1.3951 -0.000071  0.0001    1.3952   
    26. B(O  25,C  22)                1.4059  0.000009 -0.0000    1.4058   
    27. B(C  26,O  25)                1.3848 -0.000009 -0.0001    1.3847   
    28. B(O  27,C  26)                1.3774 -0.000037  0.0001    1.3774   
    29. B(C  28,C  26)                1.5207  0.000017 -0.0000    1.5206   
    30. B(C  28,C  19)                1.5210  0.000036 -0.0000    1.5210   
    31. B(O  29,C  28)                1.4021 -0.000017 -0.0000    1.4021   
    32. B(C  30,N  13)                1.3760  0.000033 -0.0001    1.3760   
    33. B(C  30,C   4)                1.5147 -0.000019  0.0000    1.5148   
    34. B(O  31,C  30)                1.1962 -0.000106  0.0000    1.1963   
    35. B(H  32,C   5)                1.0825 -0.000021  0.0000    1.0826   
    36. B(H  33,C   6)                1.0787 -0.000047  0.0001    1.0788   
    37. B(H  34,C   7)                1.0753 -0.000007 -0.0000    1.0753   
    38. B(H  35,C   7)                1.0763 -0.000031  0.0000    1.0763   
    39. B(H  36,C   8)                1.0865 -0.000013  0.0000    1.0865   
    40. B(H  37,C   8)                1.0838 -0.000014  0.0000    1.0838   
    41. B(H  38,C   9)                1.0881  0.000006 -0.0001    1.0881   
    42. B(H  39,C  10)                1.0782 -0.000029  0.0001    1.0782   
    43. B(H  40,C  11)                1.0751 -0.000028  0.0000    1.0752   
    44. B(H  41,C  11)                1.0753 -0.000039  0.0001    1.0754   
    45. B(H  42,C  14)                1.0760 -0.000041  0.0001    1.0762   
    46. B(H  43,C  14)                1.0823 -0.000017 -0.0000    1.0823   
    47. B(H  44,C  15)                1.0838 -0.000018  0.0001    1.0838   
    48. B(H  45,C  15)                1.0849 -0.000021  0.0001    1.0849   
    49. B(H  46,C  16)                1.0874 -0.000004 -0.0000    1.0874   
    50. B(H  47,C  16)                1.0864 -0.000009  0.0000    1.0864   
    51. B(H  48,C  17)                1.0883 -0.000000  0.0000    1.0884   
    52. B(H  48,H  34)                3.4929  0.000025 -0.0200    3.4729   
    53. B(H  49,C  17)                1.0804 -0.000144  0.0002    1.0807   
    54. B(H  50,C  19)                1.0888 -0.000028  0.0001    1.0889   
    55. B(H  51,C  20)                1.0837 -0.000021  0.0000    1.0837   
    56. B(H  52,O  21)                0.9516 -0.000105  0.0000    0.9516   
    57. B(H  52,O  31)                2.2116 -0.000019  0.0065    2.2181   
    58. B(H  53,C  22)                1.0904 -0.000027  0.0000    1.0904   
    59. B(H  54,C  23)                1.0807 -0.000033  0.0000    1.0807   
    60. B(H  55,C  23)                1.0883 -0.000025  0.0000    1.0884   
    61. B(H  56,O  24)                0.9492 -0.000120  0.0002    0.9494   
    62. B(H  56,O  21)                2.1172  0.000028 -0.0004    2.1168   
    63. B(H  57,C  26)                1.0917 -0.000034  0.0001    1.0917   
    64. B(H  58,O  27)                0.9498 -0.000118  0.0002    0.9499   
    65. B(H  58,O  29)                2.3724 -0.000013  0.0021    2.3745   
    66. B(H  59,C  28)                1.0862 -0.000025  0.0000    1.0862   
    67. B(H  60,O  29)                0.9482 -0.000128  0.0002    0.9484   
    68. A(O   0,C   1,N  13)          124.40  0.000012   -0.01    124.39   
    69. A(O   0,C   1,C   2)          126.90 -0.000043    0.01    126.92   
    70. A(C   2,C   1,N  13)          108.70  0.000032   -0.01    108.69   
    71. A(C   1,C   2,H   3)          107.57 -0.000026   -0.00    107.57   
    72. A(H   3,C   2,C   4)          112.25  0.000015   -0.01    112.24   
    73. A(H   3,C   2,C   9)          110.41  0.000024   -0.02    110.39   
    74. A(C   1,C   2,C   9)          115.04  0.000022    0.01    115.05   
    75. A(C   4,C   2,C   9)          107.02 -0.000024    0.03    107.05   
    76. A(C   1,C   2,C   4)          104.50 -0.000011   -0.01    104.49   
    77. A(H  12,C   4,C  30)          107.20 -0.000042    0.06    107.26   
    78. A(C   2,C   4,H  12)          112.40 -0.000001    0.02    112.42   
    79. A(C   5,C   4,C  30)          116.98  0.000018   -0.06    116.93   
    80. A(C   2,C   4,C   5)          106.71  0.000020   -0.03    106.68   
    81. A(C   2,C   4,C  30)          104.68 -0.000019    0.01    104.69   
    82. A(C   5,C   4,H  12)          108.93  0.000023    0.00    108.93   
    83. A(C   6,C   5,C   8)          111.60 -0.000008    0.01    111.60   
    84. A(C   4,C   5,C   8)          101.44 -0.000005   -0.01    101.43   
    85. A(C   6,C   5,H  32)          107.92 -0.000011    0.02    107.94   
    86. A(C   4,C   5,H  32)          109.52 -0.000003    0.02    109.54   
    87. A(C   4,C   5,C   6)          115.15  0.000012   -0.06    115.09   
    88. A(C   8,C   5,H  32)          111.15  0.000017    0.02    111.18   
    89. A(C   5,C   6,C   7)          124.34 -0.000171    0.07    124.41   
    90. A(C   5,C   6,H  33)          117.02  0.000081   -0.04    116.98   
    91. A(C   7,C   6,H  33)          118.62  0.000090   -0.03    118.59   
    92. A(C   6,C   7,H  35)          121.90 -0.000046    0.01    121.90   
    93. A(C   6,C   7,H  34)          121.64  0.000165   -0.06    121.58   
    94. A(H  34,C   7,H  35)          116.46 -0.000119    0.05    116.51   
    95. A(C   9,C   8,H  36)          109.59  0.000015   -0.02    109.57   
    96. A(C   5,C   8,H  36)          109.13  0.000027   -0.02    109.11   
    97. A(H  36,C   8,H  37)          107.76 -0.000028    0.02    107.78   
    98. A(C   5,C   8,C   9)          104.85 -0.000022    0.01    104.86   
    99. A(C   5,C   8,H  37)          112.42 -0.000012    0.01    112.43   
   100. A(C   9,C   8,H  37)          113.02  0.000022   -0.00    113.02   
   101. A(C   2,C   9,C  10)          112.99 -0.000006   -0.01    112.98   
   102. A(C  10,C   9,H  38)          106.67  0.000059   -0.02    106.65   
   103. A(C   2,C   9,C   8)          102.62  0.000016    0.01    102.64   
   104. A(C   8,C   9,H  38)          108.57 -0.000045    0.02    108.59   
   105. A(C   2,C   9,H  38)          108.10 -0.000047    0.03    108.13   
   106. A(C   8,C   9,C  10)          117.55  0.000012   -0.02    117.53   
   107. A(C   9,C  10,H  39)          114.21 -0.000016    0.01    114.22   
   108. A(C  11,C  10,H  39)          119.14  0.000003   -0.01    119.14   
   109. A(C   9,C  10,C  11)          126.64  0.000013   -0.00    126.64   
   110. A(H  40,C  11,H  41)          116.21 -0.000047    0.02    116.23   
   111. A(C  10,C  11,H  41)          122.88  0.000048   -0.02    122.86   
   112. A(C  10,C  11,H  40)          120.91 -0.000001   -0.00    120.91   
   113. A(C   1,N  13,C  30)          113.16 -0.000043    0.01    113.17   
   114. A(C   1,N  13,C  14)          122.33  0.000075   -0.04    122.29   
   115. A(C  14,N  13,C  30)          123.88 -0.000033    0.04    123.92   
   116. A(N  13,C  14,C  15)          115.49 -0.000043    0.02    115.51   
   117. A(H  42,C  14,H  43)          107.93 -0.000017    0.01    107.94   
   118. A(C  15,C  14,H  43)          108.48  0.000017   -0.01    108.47   
   119. A(N  13,C  14,H  43)          107.02  0.000002   -0.02    107.00   
   120. A(C  15,C  14,H  42)          110.88  0.000037   -0.01    110.87   
   121. A(N  13,C  14,H  42)          106.75  0.000004    0.00    106.75   
   122. A(H  44,C  15,H  45)          106.92  0.000052   -0.03    106.89   
   123. A(C  14,C  15,C  16)          117.17  0.000135    0.01    117.17   
   124. A(C  16,C  15,H  45)          108.83 -0.000096    0.02    108.85   
   125. A(C  14,C  15,H  45)          105.80  0.000017   -0.02    105.79   
   126. A(C  16,C  15,H  44)          108.47 -0.000053    0.02    108.48   
   127. A(C  14,C  15,H  44)          109.19 -0.000057    0.00    109.20   
   128. A(C  17,C  16,H  47)          109.21 -0.000034    0.02    109.23   
   129. A(H  46,C  16,H  47)          106.18  0.000005    0.01    106.20   
   130. A(C  15,C  16,H  47)          107.81 -0.000066    0.01    107.82   
   131. A(C  17,C  16,H  46)          107.06 -0.000086    0.01    107.07   
   132. A(C  15,C  16,H  46)          110.13 -0.000049    0.01    110.14   
   133. A(C  15,C  16,C  17)          116.02  0.000215   -0.06    115.97   
   134. A(C  16,C  17,O  18)          110.20  0.000090   -0.03    110.17   
   135. A(O  18,C  17,H  49)          109.79 -0.000069    0.02    109.81   
   136. A(C  16,C  17,H  49)          110.40 -0.000012   -0.01    110.39   
   137. A(O  18,C  17,H  48)          109.69 -0.000020    0.01    109.70   
   138. A(C  16,C  17,H  48)          109.46 -0.000038    0.03    109.49   
   139. A(H  48,C  17,H  49)          107.26  0.000047   -0.02    107.24   
   140. A(C  17,O  18,C  19)          115.58 -0.000053   -0.00    115.58   
   141. A(O  18,C  19,C  20)          112.06 -0.000036    0.05    112.11   
   142. A(C  28,C  19,H  50)          108.15 -0.000010    0.00    108.16   
   143. A(C  20,C  19,H  50)          109.01  0.000003    0.01    109.02   
   144. A(O  18,C  19,H  50)          109.56 -0.000011    0.01    109.56   
   145. A(C  20,C  19,C  28)          108.88 -0.000009   -0.01    108.87   
   146. A(O  18,C  19,C  28)          109.09  0.000063   -0.06    109.03   
   147. A(O  21,C  20,C  22)          111.52 -0.000008    0.01    111.53   
   148. A(C  19,C  20,C  22)          109.22  0.000006   -0.01    109.21   
   149. A(C  19,C  20,O  21)          113.86 -0.000011    0.02    113.88   
   150. A(O  21,C  20,H  51)          105.57  0.000013   -0.02    105.55   
   151. A(C  19,C  20,H  51)          108.33 -0.000008    0.01    108.34   
   152. A(C  22,C  20,H  51)          108.09  0.000009   -0.01    108.08   
   153. A(C  20,O  21,H  52)          113.31 -0.000099    0.03    113.35   
   154. A(O  25,C  22,H  53)          110.17 -0.000002   -0.00    110.17   
   155. A(C  23,C  22,H  53)          108.05  0.000005   -0.02    108.03   
   156. A(C  20,C  22,H  53)          109.31 -0.000004    0.01    109.33   
   157. A(C  23,C  22,O  25)          106.62  0.000009    0.01    106.63   
   158. A(C  20,C  22,O  25)          109.22 -0.000003    0.01    109.23   
   159. A(C  20,C  22,C  23)          113.42 -0.000005   -0.01    113.41   
   160. A(H  54,C  23,H  55)          107.67  0.000002   -0.01    107.66   
   161. A(C  22,C  23,H  55)          109.27 -0.000020    0.02    109.29   
   162. A(O  24,C  23,H  54)          107.27 -0.000011    0.01    107.28   
   163. A(C  22,C  23,H  54)          108.20  0.000021   -0.00    108.20   
   164. A(O  24,C  23,H  55)          111.72  0.000020   -0.01    111.71   
   165. A(C  22,C  23,O  24)          112.51 -0.000012   -0.01    112.50   
   166. A(C  23,O  24,H  56)          108.53  0.000013   -0.03    108.51   
   167. A(C  22,O  25,C  26)          114.66  0.000016    0.01    114.67   
   168. A(C  28,C  26,H  57)          109.38  0.000018   -0.02    109.36   
   169. A(O  27,C  26,H  57)          110.41 -0.000009    0.01    110.41   
   170. A(O  25,C  26,H  57)          109.75 -0.000009    0.02    109.77   
   171. A(O  27,C  26,C  28)          111.50  0.000010   -0.00    111.50   
   172. A(O  25,C  26,C  28)          109.21 -0.000010    0.01    109.22   
   173. A(O  25,C  26,O  27)          106.54 -0.000001   -0.01    106.53   
   174. A(C  26,O  27,H  58)          107.99 -0.000019    0.01    108.00   
   175. A(O  29,C  28,H  59)          110.47  0.000003   -0.00    110.47   
   176. A(C  26,C  28,H  59)          107.54 -0.000005    0.01    107.55   
   177. A(C  19,C  28,H  59)          109.22 -0.000005    0.00    109.22   
   178. A(C  26,C  28,O  29)          107.42 -0.000011    0.01    107.43   
   179. A(C  19,C  28,O  29)          111.80  0.000014   -0.02    111.78   
   180. A(C  19,C  28,C  26)          110.29  0.000003    0.01    110.30   
   181. A(C  28,O  29,H  60)          108.75  0.000051   -0.03    108.72   
   182. A(N  13,C  30,O  31)          125.25 -0.000033    0.02    125.27   
   183. A(C   4,C  30,O  31)          126.14 -0.000002   -0.00    126.13   
   184. A(C   4,C  30,N  13)          108.61  0.000036   -0.01    108.59   
   185. D(C   9,C   2,C   1,O   0)     60.18  0.000001   -0.19     59.99   
   186. D(H   3,C   2,C   1,N  13)    116.14  0.000024   -0.23    115.91   
   187. D(H   3,C   2,C   1,O   0)    -63.31 -0.000025   -0.17    -63.48   
   188. D(C   4,C   2,C   1,N  13)     -3.33  0.000024   -0.22     -3.55   
   189. D(C   4,C   2,C   1,O   0)    177.22 -0.000025   -0.15    177.06   
   190. D(C   5,C   4,C   2,H   3)    124.55  0.000023    0.27    124.82   
   191. D(H  12,C   4,C   2,H   3)      5.20 -0.000018    0.28      5.48   
   192. D(C   5,C   4,C   2,C   1)   -119.18 -0.000007    0.26   -118.92   
   193. D(H  12,C   4,C   2,C   1)    121.48 -0.000048    0.27    121.74   
   194. D(H  12,C   4,C   2,C   9)   -116.08 -0.000040    0.29   -115.79   
   195. D(C   5,C   4,C   2,C   9)      3.26  0.000000    0.28      3.54   
   196. D(C   6,C   5,C   4,C  30)    -22.80 -0.000019   -0.18    -22.98   
   197. D(C   8,C   5,C   4,C  30)   -143.45 -0.000012   -0.16   -143.60   
   198. D(C   8,C   5,C   4,C   2)    -26.72 -0.000011   -0.20    -26.92   
   199. D(C   6,C   5,C   4,C   2)     93.93 -0.000018   -0.23     93.70   
   200. D(C   6,C   5,C   4,H  12)   -144.49  0.000006   -0.22   -144.72   
   201. D(C   8,C   5,C   4,H  12)     94.86  0.000013   -0.20     94.66   
   202. D(C   7,C   6,C   5,C   8)   -127.21 -0.000003   -0.16   -127.38   
   203. D(H  33,C   6,C   5,C   4)    -63.91  0.000017   -0.12    -64.04   
   204. D(C   7,C   6,C   5,C   4)    117.87  0.000001   -0.12    117.75   
   205. D(C   7,C   6,C   5,H  32)     -4.81  0.000005   -0.12     -4.92   
   206. D(H  33,C   6,C   5,C   8)     51.01  0.000013   -0.17     50.84   
   207. D(H  35,C   7,C   6,C   5)     -1.68 -0.000005    0.05     -1.63   
   208. D(H  34,C   7,C   6,H  33)      0.09  0.000004    0.02      0.11   
   209. D(H  34,C   7,C   6,C   5)    178.28  0.000020    0.02    178.30   
   210. D(H  35,C   7,C   6,H  33)   -179.88 -0.000021    0.06   -179.82   
   211. D(H  36,C   8,C   5,C   4)    -76.36 -0.000009    0.08    -76.28   
   212. D(H  36,C   8,C   5,C   6)    160.52 -0.000016    0.15    160.67   
   213. D(C   9,C   8,C   5,H  32)    157.32  0.000011    0.08    157.40   
   214. D(C   9,C   8,C   5,C   6)    -82.14  0.000003    0.12    -82.02   
   215. D(C   9,C   8,C   5,C   4)     40.97  0.000010    0.05     41.02   
   216. D(H  36,C   8,C   5,H  32)     39.99 -0.000008    0.10     40.10   
   217. D(C  10,C   9,C   8,H  37)     73.33 -0.000013    0.12     73.45   
   218. D(C  10,C   9,C   8,C   5)   -163.89 -0.000030    0.14   -163.75   
   219. D(C   2,C   9,C   8,H  37)   -162.04 -0.000000    0.11   -161.94   
   220. D(C   2,C   9,C   8,H  36)     77.75  0.000010    0.10     77.85   
   221. D(C   2,C   9,C   8,C   5)    -39.26 -0.000018    0.13    -39.14   
   222. D(C  10,C   9,C   2,C   4)    149.34  0.000041   -0.27    149.07   
   223. D(C  10,C   9,C   2,C   1)    -95.06  0.000023   -0.26    -95.32   
   224. D(C   8,C   9,C   2,C   4)     21.76  0.000018   -0.25     21.51   
   225. D(C   8,C   9,C   2,H   3)   -100.68  0.000000   -0.25   -100.93   
   226. D(C  10,C   9,C   8,H  36)    -46.87 -0.000003    0.11    -46.76   
   227. D(C   8,C   9,C   2,C   1)    137.36  0.000000   -0.24    137.12   
   228. D(C  10,C   9,C   2,H   3)     26.90  0.000023   -0.27     26.63   
   229. D(H  39,C  10,C   9,C   8)    174.91  0.000009    0.02    174.93   
   230. D(H  39,C  10,C   9,C   2)     55.63 -0.000017    0.03     55.65   
   231. D(C  11,C  10,C   9,H  38)    116.14  0.000011   -0.01    116.13   
   232. D(C  11,C  10,C   9,C   8)     -5.94  0.000014   -0.01     -5.95   
   233. D(C  11,C  10,C   9,C   2)   -125.22 -0.000012   -0.00   -125.22   
   234. D(H  41,C  11,C  10,H  39)    179.30 -0.000000   -0.01    179.29   
   235. D(H  41,C  11,C  10,C   9)      0.18 -0.000006    0.02      0.20   
   236. D(H  40,C  11,C  10,H  39)     -0.32 -0.000001   -0.00     -0.33   
   237. D(H  40,C  11,C  10,C   9)   -179.44 -0.000007    0.03   -179.42   
   238. D(C  30,N  13,C   1,C   2)     -0.44 -0.000060    0.18     -0.27   
   239. D(C  30,N  13,C   1,O   0)    179.02 -0.000013    0.11    179.13   
   240. D(C  14,N  13,C   1,C   2)   -171.64 -0.000051    0.10   -171.54   
   241. D(C  14,N  13,C   1,O   0)      7.83 -0.000004    0.03      7.86   
   242. D(H  43,C  14,N  13,C   1)     46.56 -0.000003   -0.05     46.51   
   243. D(H  42,C  14,N  13,C  30)     -8.32 -0.000011   -0.13     -8.45   
   244. D(H  42,C  14,N  13,C   1)    161.92 -0.000020   -0.05    161.87   
   245. D(C  15,C  14,N  13,C  30)    115.44  0.000010   -0.12    115.32   
   246. D(C  15,C  14,N  13,C   1)    -74.32  0.000001   -0.04    -74.35   
   247. D(C  16,C  15,C  14,N  13)    -55.70 -0.000002    0.09    -55.61   
   248. D(H  44,C  15,C  14,H  43)    -52.03 -0.000007    0.14    -51.89   
   249. D(H  44,C  15,C  14,H  42)   -170.39 -0.000018    0.14   -170.24   
   250. D(H  44,C  15,C  14,N  13)     68.05 -0.000020    0.12     68.17   
   251. D(C  16,C  15,C  14,H  43)   -175.78  0.000011    0.11   -175.67   
   252. D(C  16,C  15,C  14,H  42)     65.86 -0.000000    0.11     65.97   
   253. D(H  46,C  16,C  15,H  45)   -166.83  0.000037   -0.16   -166.99   
   254. D(H  46,C  16,C  15,H  44)    -50.85  0.000018   -0.17    -51.03   
   255. D(H  46,C  16,C  15,C  14)     73.27 -0.000003   -0.15     73.12   
   256. D(C  17,C  16,C  15,H  45)     71.39  0.000033   -0.13     71.25   
   257. D(C  17,C  16,C  15,H  44)   -172.63  0.000014   -0.15   -172.79   
   258. D(C  17,C  16,C  15,C  14)    -48.51 -0.000007   -0.13    -48.64   
   259. D(H  48,C  17,C  16,H  47)    -52.09  0.000071   -0.41    -52.50   
   260. D(H  48,C  17,C  16,H  46)     62.47  0.000015   -0.38     62.09   
   261. D(H  48,C  17,C  16,C  15)   -174.14  0.000031   -0.40   -174.53   
   262. D(O  18,C  17,C  16,H  47)     68.62  0.000079   -0.40     68.22   
   263. D(O  18,C  17,C  16,H  46)   -176.82  0.000022   -0.37   -177.19   
   264. D(O  18,C  17,C  16,C  15)    -53.42  0.000039   -0.39    -53.81   
   265. D(C  19,O  18,C  17,H  49)     47.64  0.000009   -0.04     47.60   
   266. D(C  19,O  18,C  17,H  48)    -69.98  0.000005   -0.03    -70.01   
   267. D(C  19,O  18,C  17,C  16)    169.45  0.000008   -0.05    169.39   
   268. D(H  50,C  19,O  18,C  17)      3.97 -0.000048    0.65      4.62   
   269. D(C  28,C  19,O  18,C  17)    122.19 -0.000029    0.62    122.81   
   270. D(C  20,C  19,O  18,C  17)   -117.16 -0.000020    0.60   -116.56   
   271. D(C  22,C  20,C  19,H  50)     63.47 -0.000012   -0.02     63.45   
   272. D(C  22,C  20,C  19,C  28)    -54.31  0.000003   -0.03    -54.34   
   273. D(C  22,C  20,C  19,O  18)   -175.09 -0.000047    0.02   -175.06   
   274. D(O  21,C  20,C  19,H  50)    -61.91  0.000002   -0.04    -61.95   
   275. D(O  21,C  20,C  19,C  28)   -179.69  0.000017   -0.05   -179.74   
   276. D(O  21,C  20,C  19,O  18)     59.54 -0.000034    0.00     59.54   
   277. D(H  52,O  21,C  20,H  51)    155.37 -0.000047    0.31    155.68   
   278. D(H  52,O  21,C  20,C  22)    -87.48 -0.000033    0.29    -87.19   
   279. D(H  52,O  21,C  20,C  19)     36.67 -0.000040    0.29     36.96   
   280. D(O  25,C  22,C  20,H  51)    -60.98 -0.000000    0.01    -60.97   
   281. D(O  25,C  22,C  20,O  21)   -176.60 -0.000017    0.04   -176.56   
   282. D(O  25,C  22,C  20,C  19)     56.68 -0.000001    0.01     56.69   
   283. D(C  23,C  22,C  20,H  51)     57.78  0.000006    0.02     57.80   
   284. D(C  23,C  22,C  20,O  21)    -57.84 -0.000011    0.05    -57.79   
   285. D(C  23,C  22,C  20,C  19)    175.44  0.000005    0.02    175.46   
   286. D(H  54,C  23,C  22,H  53)     68.68  0.000000    0.01     68.69   
   287. D(H  54,C  23,C  22,O  25)    -49.73 -0.000004    0.02    -49.71   
   288. D(H  54,C  23,C  22,C  20)   -169.97 -0.000004    0.01   -169.97   
   289. D(O  24,C  23,C  22,H  53)    -49.65  0.000007    0.01    -49.65   
   290. D(O  24,C  23,C  22,O  25)   -168.06  0.000002    0.01   -168.05   
   291. D(O  24,C  23,C  22,C  20)     71.69  0.000003    0.00     71.70   
   292. D(H  56,O  24,C  23,H  55)     67.13 -0.000030   -0.08     67.05   
   293. D(H  56,O  24,C  23,H  54)   -175.09 -0.000022   -0.09   -175.19   
   294. D(H  56,O  24,C  23,C  22)    -56.22 -0.000010   -0.09    -56.31   
   295. D(C  26,O  25,C  22,H  53)     57.43 -0.000016    0.05     57.48   
   296. D(C  26,O  25,C  22,C  23)    174.44 -0.000006    0.03    174.47   
   297. D(C  26,O  25,C  22,C  20)    -62.65 -0.000008    0.02    -62.63   
   298. D(H  57,C  26,O  25,C  22)    -57.35 -0.000008   -0.04    -57.39   
   299. D(C  28,C  26,O  25,C  22)     62.55  0.000002   -0.04     62.50   
   300. D(O  27,C  26,O  25,C  22)   -176.90  0.000007   -0.05   -176.94   
   301. D(H  58,O  27,C  26,H  57)     73.04  0.000022   -0.28     72.76   
   302. D(H  58,O  27,C  26,C  28)    -48.77 -0.000002   -0.26    -49.03   
   303. D(H  58,O  27,C  26,O  25)   -167.84  0.000006   -0.27   -168.11   
   304. D(C  19,C  28,C  26,O  25)    -57.27  0.000007    0.02    -57.25   
   305. D(O  29,C  28,C  19,H  50)     55.94 -0.000002    0.01     55.95   
   306. D(O  29,C  28,C  19,C  20)    174.26 -0.000008    0.01    174.28   
   307. D(O  29,C  28,C  19,O  18)    -63.16 -0.000018    0.03    -63.13   
   308. D(C  26,C  28,C  19,H  50)    -63.51  0.000001    0.01    -63.51   
   309. D(C  26,C  28,C  19,C  20)     54.81 -0.000006    0.02     54.82   
   310. D(C  19,C  28,C  26,O  27)   -174.74  0.000008    0.03   -174.71   
   311. D(C  26,C  28,C  19,O  18)    177.39 -0.000016    0.03    177.42   
   312. D(O  29,C  28,C  26,H  57)    -59.22 -0.000012    0.05    -59.16   
   313. D(O  29,C  28,C  26,O  27)     63.19 -0.000004    0.05     63.23   
   314. D(O  29,C  28,C  26,O  25)   -179.34 -0.000005    0.04   -179.30   
   315. D(C  19,C  28,C  26,H  57)     62.86  0.000000    0.04     62.89   
   316. D(H  60,O  29,C  28,H  59)    -54.34  0.000032   -0.46    -54.80   
   317. D(H  60,O  29,C  28,C  26)   -171.36  0.000042   -0.48   -171.83   
   318. D(H  60,O  29,C  28,C  19)     67.51  0.000037   -0.48     67.04   
   319. D(O  31,C  30,N  13,C   1)   -175.00  0.000016    0.01   -174.99   
   320. D(C   4,C  30,N  13,C  14)    175.19  0.000074    0.02    175.21   
   321. D(C   4,C  30,N  13,C   1)      4.15  0.000072   -0.05      4.10   
   322. D(O  31,C  30,C   4,C   5)    -68.98  0.000026   -0.22    -69.20   
   323. D(O  31,C  30,C   4,C   2)    173.18  0.000004   -0.16    173.03   
   324. D(N  13,C  30,C   4,H  12)   -125.53 -0.000021   -0.14   -125.68   
   325. D(N  13,C  30,C   4,C   5)    111.87 -0.000030   -0.15    111.72   
   326. D(O  31,C  30,N  13,C  14)     -3.96  0.000018    0.08     -3.88   
   327. D(N  13,C  30,C   4,C   2)     -5.96 -0.000052   -0.09     -6.05   
    ----------------------------------------------------------------------------

Geometry step timings:
Preparation and reading OPT file:      0.003 s ( 8.479 %)
Internal coordinates            :      0.000 s ( 0.148 %)
B/P matrices and projection     :      0.011 s (38.258 %)
Hessian update/contruction      :      0.004 s (12.466 %)
Making the step                 :      0.007 s (24.447 %)
Converting the step to Cartesian:      0.001 s ( 3.196 %)
Storing new data                :      0.000 s ( 0.899 %)
Checking convergence            :      0.000 s ( 0.235 %)
Final printing                  :      0.004 s (11.866 %)
Total time                      :      0.030 s

Time for energy+gradient        :    428.616 s
Time for complete geometry iter :    428.719 s

         *************************************************************
         *                GEOMETRY OPTIMIZATION CYCLE  12            *
         *************************************************************
---------------------------------
CARTESIAN COORDINATES (ANGSTROEM)
---------------------------------
  O     -2.724717    2.672083    1.768298
  C     -2.525570    1.512247    1.587380
  C     -3.544140    0.394912    1.647909
  H     -3.919450    0.349122    2.663705
  C     -2.755558   -0.865184    1.262252
  C     -3.418932   -1.429840   -0.031794
  C     -2.792812   -0.969001   -1.325451
  C     -2.220766   -1.769936   -2.203244
  C     -4.865375   -0.912329    0.115334
  C     -4.718660    0.521681    0.643014
  C     -5.938277    1.170994    1.242907
  C     -7.160919    0.677070    1.268234
  H     -2.787575   -1.624574    2.033390
  N     -1.287947    0.968439    1.295173
  C     -0.054508    1.758441    1.343852
  C      0.145587    2.739895    0.187988
  C      0.101762    2.166855   -1.232417
  C      0.948453    0.928440   -1.476743
  O      2.279955    1.165913   -1.086070
  C      3.109446    0.035465   -1.043218
  C      3.612251   -0.254857    0.368223
  O      2.588324   -0.488283    1.299423
  C      4.607713   -1.424375    0.319634
  C      5.255383   -1.725120    1.667044
  O      4.365652   -2.310541    2.568296
  O      5.651820   -1.107134   -0.566678
  C      5.257668   -0.920339   -1.880921
  O      6.406209   -0.690237   -2.605674
  C      4.305686    0.263160   -1.954542
  O      3.918806    0.408275   -3.294368
  C     -1.318523   -0.399454    1.149464
  O     -0.361983   -1.097626    0.980216
  H     -3.386854   -2.511752   -0.012670
  H     -2.848198    0.085171   -1.547836
  H     -1.811952   -1.395475   -3.124586
  H     -2.139151   -2.830221   -2.037199
  H     -5.387203   -1.519006    0.850311
  H     -5.420803   -0.967320   -0.813675
  H     -4.396031    1.161273   -0.175947
  H     -5.755472    2.142399    1.673644
  H     -7.969536    1.226859    1.715279
  H     -7.412477   -0.279780    0.846761
  H      0.760629    1.057808    1.397322
  H     -0.073993    2.318504    2.269747
  H     -0.590393    3.532101    0.261763
  H      1.116466    3.195373    0.352323
  H     -0.920512    1.912985   -1.502412
  H      0.410014    2.951819   -1.917269
  H      0.916826    0.669688   -2.533419
  H      0.550611    0.086290   -0.928731
  H      2.563116   -0.831828   -1.410669
  H      4.139233    0.620520    0.729280
  H      1.852043   -0.970384    0.937430
  H      4.090965   -2.324462   -0.014841
  H      6.058852   -2.429673    1.505639
  H      5.692149   -0.812326    2.067794
  H      3.614690   -1.737885    2.665454
  H      4.750565   -1.815897   -2.245170
  H      6.152754   -0.377845   -3.466204
  H      4.848915    1.141831   -1.618778
  H      3.427242    1.214387   -3.383646

----------------------------
CARTESIAN COORDINATES (A.U.)
----------------------------
  NO LB      ZA    FRAG     MASS         X           Y           Z
   0 O     8.0000    0    15.999   -5.148969    5.049505    3.341600
   1 C     6.0000    0    12.011   -4.772635    2.857732    2.999714
   2 C     6.0000    0    12.011   -6.697453    0.746276    3.114097
   3 H     1.0000    0     1.008   -7.406686    0.659745    5.033674
   4 C     6.0000    0    12.011   -5.207250   -1.634960    2.385310
   5 C     6.0000    0    12.011   -6.460845   -2.702006   -0.060083
   6 C     6.0000    0    12.011   -5.277650   -1.831147   -2.504739
   7 C     6.0000    0    12.011   -4.196640   -3.344694   -4.163527
   8 C     6.0000    0    12.011   -9.194225   -1.724052    0.217949
   9 C     6.0000    0    12.011   -8.916975    0.985835    1.215120
  10 C     6.0000    0    12.011  -11.221717    2.212857    2.348754
  11 C     6.0000    0    12.011  -13.532176    1.279477    2.396615
  12 H     1.0000    0     1.008   -5.267753   -3.070000    3.842549
  13 N     7.0000    0    14.007   -2.433866    1.830085    2.447522
  14 C     6.0000    0    12.011   -0.103005    3.322972    2.539512
  15 C     6.0000    0    12.011    0.275119    5.177651    0.355245
  16 C     6.0000    0    12.011    0.192302    4.094762   -2.328931
  17 C     6.0000    0    12.011    1.792317    1.754497   -2.790639
  18 O     8.0000    0    15.999    4.308491    2.203257   -2.052374
  19 C     6.0000    0    12.011    5.876002    0.067019   -1.971396
  20 C     6.0000    0    12.011    6.826164   -0.481611    0.695840
  21 O     8.0000    0    15.999    4.891224   -0.922721    2.455553
  22 C     6.0000    0    12.011    8.707316   -2.691678    0.604020
  23 C     6.0000    0    12.011    9.931235   -3.260004    3.150257
  24 O     8.0000    0    15.999    8.249887   -4.366289    4.853376
  25 O     8.0000    0    15.999   10.680392   -2.092179   -1.070866
  26 C     6.0000    0    12.011    9.935552   -1.739188   -3.554425
  27 O     8.0000    0    15.999   12.105981   -1.304359   -4.924011
  28 C     6.0000    0    12.011    8.136567    0.497300   -3.693549
  29 O     8.0000    0    15.999    7.405470    0.771527   -6.225453
  30 C     6.0000    0    12.011   -2.491647   -0.754859    2.172172
  31 O     8.0000    0    15.999   -0.684049   -2.074213    1.852339
  32 H     1.0000    0     1.008   -6.400227   -4.746524   -0.023944
  33 H     1.0000    0     1.008   -5.382315    0.160951   -2.924987
  34 H     1.0000    0     1.008   -3.424093   -2.637065   -5.904613
  35 H     1.0000    0     1.008   -4.042409   -5.348343   -3.849748
  36 H     1.0000    0     1.008  -10.180338   -2.870506    1.606855
  37 H     1.0000    0     1.008  -10.243832   -1.827970   -1.537623
  38 H     1.0000    0     1.008   -8.307295    2.194488   -0.332491
  39 H     1.0000    0     1.008  -10.876265    4.048548    3.162729
  40 H     1.0000    0     1.008  -15.060241    2.318427    3.241408
  41 H     1.0000    0     1.008  -14.007552   -0.528707    1.600146
  42 H     1.0000    0     1.008    1.437381    1.998968    2.640555
  43 H     1.0000    0     1.008   -0.139827    4.381337    4.289200
  44 H     1.0000    0     1.008   -1.115681    6.674703    0.494660
  45 H     1.0000    0     1.008    2.109814    6.038379    0.665794
  46 H     1.0000    0     1.008   -1.739515    3.615018   -2.839148
  47 H     1.0000    0     1.008    0.774815    5.578130   -3.623114
  48 H     1.0000    0     1.008    1.732551    1.265526   -4.787467
  49 H     1.0000    0     1.008    1.040503    0.163065   -1.755048
  50 H     1.0000    0     1.008    4.843587   -1.571927   -2.665778
  51 H     1.0000    0     1.008    7.822016    1.172612    1.378139
  52 H     1.0000    0     1.008    3.499855   -1.833761    1.771486
  53 H     1.0000    0     1.008    7.730804   -4.392597   -0.028045
  54 H     1.0000    0     1.008   11.449571   -4.591416    2.845246
  55 H     1.0000    0     1.008   10.756603   -1.535073    3.907565
  56 H     1.0000    0     1.008    6.830775   -3.284127    5.036979
  57 H     1.0000    0     1.008    8.977267   -3.431548   -4.242757
  58 H     1.0000    0     1.008   11.627019   -0.714023   -6.550176
  59 H     1.0000    0     1.008    9.163122    2.157748   -3.059048
  60 H     1.0000    0     1.008    6.476549    2.294860   -6.394164

--------------------------------
INTERNAL COORDINATES (ANGSTROEM)
--------------------------------
 O      0   0   0     0.000000000000     0.00000000     0.00000000
 C      1   0   0     1.190635009954     0.00000000     0.00000000
 C      2   1   0     1.513137526409   126.91648948     0.00000000
 H      3   2   1     1.083879994204   107.56421084   296.52699130
 C      3   2   1     1.535719571074   104.48872350   177.06578811
 C      5   3   2     1.559954262897   106.67600814   241.07641177
 C      6   5   3     1.509286440760   115.09304336    93.70341751
 C      7   6   5     1.318807464631   124.40303090   117.74863477
 C      6   5   3     1.543262749587   101.42627724   333.08107866
 C      9   6   5     1.535043149207   104.85987373    41.02358349
 C     10   9   6     1.506301670929   117.52971942   196.25229532
 C     11  10   9     1.318884007417   126.64153481   354.05303082
 H      5   3   2     1.082752501633   112.42298208   121.74228903
 N      2   1   3     1.383048063254   124.38856851   180.71438274
 C     14   2   1     1.465552096499   122.28676693     7.86425133
 C     15  14   2     1.529481118069   115.52501301   285.64617871
 C     16  15  14     1.532268130758   117.18269537   304.38175879
 C     17  16  15     1.519951565515   115.96283023   311.35871006
 O     18  17  16     1.407805457598   110.17036028   306.19166735
 C     19  18  17     1.402784908674   115.58246352   169.39350106
 C     20  19  18     1.526192476600   112.10818271   243.44123816
 O     21  20  19     1.403583201862   113.88240445    59.53953942
 C     21  20  19     1.536579715110   109.20644149   184.93920579
 C     23  21  20     1.524939110534   113.41054044   175.45792667
 O     24  23  21     1.395203731724   112.49910437    71.69808412
 O     23  21  20     1.405827221515   109.22834741    56.69241129
 C     26  23  21     1.384731841072   114.67058006   297.37463279
 O     27  26  23     1.377447607459   106.53301530   183.05651224
 C     27  26  23     1.520644242470   109.21625281    62.50269106
 O     29  27  26     1.402093945680   107.43111236   180.69669015
 C     14   2   1     1.375971633054   113.16465000   179.13503704
 O     31  14   2     1.196268247901   125.26873187   185.01377026
 H      6   5   3     1.082556982067   109.54208251   215.51358023
 H      7   6   5     1.078796721100   116.98507582   295.96293827
 H      8   7   6     1.075277777248   121.58261442   178.29907723
 H      8   7   6     1.076307632752   121.90315244   358.36887864
 H      9   6   5     1.086532732973   109.11040419   283.71907524
 H      9   6   5     1.083780938562   112.43300209   164.20146624
 H     10   9   6     1.088054377921   108.58686952    75.18240474
 H     11  10   9     1.078230766687   114.21612241   174.92582365
 H     12  11  10     1.075164301956   120.90978981   180.58281187
 H     12  11  10     1.075399132884   122.85684674     0.20224253
 H     15  14   2     1.076194259469   106.74905548   161.87081791
 H     15  14   2     1.082280522826   106.99042900    46.51046914
 H     16  15  14     1.083835356152   109.19302650    68.17071234
 H     16  15  14     1.084929375592   105.78323281   182.88149908
 H     17  16  15     1.087377755962   110.14361193    73.12118423
 H     17  16  15     1.086375555005   107.82082413   188.58777482
 H     18  17  16     1.088355083642   109.48669656   185.47209223
 H     18  17  16     1.080653064688   110.38673441    67.63887009
 H     20  19  18     1.088896139383   109.56454524     4.61531301
 H     21  20  19     1.083677634427   108.34105540   302.43458408
 H     22  21  20     0.951614411908   113.34794435    36.96364427
 H     23  21  20     1.090439855810   109.32622066   296.07172873
 H     24  23  21     1.080744362770   108.20164412   190.03320247
 H     24  23  21     1.088373981041   109.29194406   306.99980636
 H     25  24  23     0.949377411631   108.50819350   303.68933100
 H     27  26  23     1.091721435429   109.76851379   302.61436046
 H     28  27  26     0.949916033115   108.00520087   191.89381054
 H     29  27  26     1.086231613596   107.54892143    61.77177195
 H     30  29  27     0.948379501845   108.72034748   188.16712934

---------------------------
INTERNAL COORDINATES (A.U.)
---------------------------
 O      0   0   0     0.000000000000     0.00000000     0.00000000
 C      1   0   0     2.249974094272     0.00000000     0.00000000
 C      2   1   0     2.859415527873   126.91648948     0.00000000
 H      3   2   1     2.048236351082   107.56421084   296.52699130
 C      3   2   1     2.902089407833   104.48872350   177.06578811
 C      5   3   2     2.947886338319   106.67600814   241.07641177
 C      6   5   3     2.852138030676   115.09304336    93.70341751
 C      7   6   5     2.492184931523   124.40303090   117.74863477
 C      6   5   3     2.916343949402   101.42627724   333.08107866
 C      9   6   5     2.900811155752   104.85987373    41.02358349
 C     10   9   6     2.846497633123   117.52971942   196.25229532
 C     11  10   9     2.492329576428   126.64153481   354.05303082
 H      5   3   2     2.046105698905   112.42298208   121.74228903
 N      2   1   3     2.613582069600   124.38856851   180.71438274
 C     14   2   1     2.769492097377   122.28676693     7.86425133
 C     15  14   2     2.890300440154   115.52501301   285.64617871
 C     16  15  14     2.895567130868   117.18269537   304.38175879
 C     17  16  15     2.872292195648   115.96283023   311.35871006
 O     18  17  16     2.660366764700   110.17036028   306.19166735
 C     19  18  17     2.650879302191   115.58246352   169.39350106
 C     20  19  18     2.884085808425   112.10818271   243.44123816
 O     21  20  19     2.652387857692   113.88240445    59.53953942
 C     21  20  19     2.903714844497   109.20644149   184.93920579
 C     23  21  20     2.881717289814   113.41054044   175.45792667
 O     24  23  21     2.636552953983   112.49910437    71.69808412
 O     23  21  20     2.656628440274   109.22834741    56.69241129
 C     26  23  21     2.616763948547   114.67058006   297.37463279
 O     27  26  23     2.602998741922   106.53301530   183.05651224
 C     27  26  23     2.873601165392   109.21625281    62.50269106
 O     29  27  26     2.649573571364   107.43111236   180.69669015
 C     14   2   1     2.600209554516   113.16465000   179.13503704
 O     31  14   2     2.260619371238   125.26873187   185.01377026
 H      6   5   3     2.045736220471   109.54208251   215.51358023
 H      7   6   5     2.038630357051   116.98507582   295.96293827
 H      8   7   6     2.031980516891   121.58261442   178.29907723
 H      8   7   6     2.033926661749   121.90315244   358.36887864
 H      9   6   5     2.053249300859   109.11040419   283.71907524
 H      9   6   5     2.048049163046   112.43300209   164.20146624
 H     10   9   6     2.056124793085   108.58686952    75.18240474
 H     11  10   9     2.037560858207   114.21612241   174.92582365
 H     12  11  10     2.031766079666   120.90978981   180.58281187
 H     12  11  10     2.032209845806   122.85684674     0.20224253
 H     15  14   2     2.033712417295   106.74905548   161.87081791
 H     15  14   2     2.045213788217   106.99042900    46.51046914
 H     16  15  14     2.048151997389   109.19302650    68.17071234
 H     16  15  14     2.050219394515   105.78323281   182.88149908
 H     17  16  15     2.054846162886   110.14361193    73.12118423
 H     17  16  15     2.052952277546   107.82082413   188.58777482
 H     18  17  16     2.056693044544   109.48669656   185.47209223
 H     18  17  16     2.042138338042   110.38673441    67.63887009
 H     20  19  18     2.057715491717   109.56454524     4.61531301
 H     21  20  19     2.047853946523   108.34105540   302.43458408
 H     22  21  20     1.798290623599   113.34794435    36.96364427
 H     23  21  20     2.060632692993   109.32622066   296.07172873
 H     24  23  21     2.042310866415   108.20164412   190.03320247
 H     24  23  21     2.056728755452   109.29194406   306.99980636
 H     25  24  23     1.794063305713   108.50819350   303.68933100
 H     27  26  23     2.063054527492   109.76851379   302.61436046
 H     28  27  26     1.795081152809   108.00520087   191.89381054
 H     29  27  26     2.052680267703   107.54892143    61.77177195
 H     30  29  27     1.792177529512   108.72034748   188.16712934

------------------------------------------------------------------------------
                   ___                                                        
                  /   \      - P O W E R E D   B Y -                         
                 /     \                                                     
                 |  |  |   _    _      __       _____    __    __             
                 |  |  |  | |  | |    /  \     |  _  \  |  |  /  |          
                  \  \/   | |  | |   /    \    | | | |  |  | /  /          
                 / \  \   | |__| |  /  /\  \   | |_| |  |  |/  /          
                |  |  |   |  __  | /  /__\  \  |    /   |      \           
                |  |  |   | |  | | |   __   |  |    \   |  |\   \          
                \     /   | |  | | |  |  |  |  | |\  \  |  | \   \       
                 \___/    |_|  |_| |__|  |__|  |_| \__\ |__|  \__/        
                                                                              
                      - O R C A' S   B I G   F R I E N D -                    
                                      &                                       
                       - I N T E G R A L  F E E D E R -                       
                                                                              
 v1 FN, 2020, v2 2021, v3 2022-2024                                           
------------------------------------------------------------------------------


----------------------
SHARK INTEGRAL PACKAGE
----------------------

Number of atoms                             ...     61
Number of basis functions                   ...    482
Number of shells                            ...    242
Maximum angular momentum                    ...      2
Integral batch strategy                     ... SHARK/LIBINT Hybrid
RI-J (if used) integral strategy            ... SPLIT-RIJ (Revised 2003 algorithm where possible)
Printlevel                                  ...      1
Contraction scheme used                     ... SEGMENTED contraction
Prescreening option                         ... SCHWARTZ
   Thresh                                   ... 2.500e-11
   Tcut                                     ... 2.500e-12
   Tpresel                                  ... 2.500e-12 
Coulomb Range Separation                    ... NOT USED
Exchange Range Separation                   ... NOT USED
Multipole approximations                    ... NOT USED
Finite Nucleus Model                        ... NOT USED
CABS basis                                  ... NOT available
Auxiliary Coulomb fitting basis             ... NOT available
Auxiliary J/K fitting basis                 ... NOT available
Auxiliary Correlation fitting basis         ... NOT available
Auxiliary 'external' fitting basis          ... NOT available

Checking pre-screening integrals            ... done (  0.0 sec) Dimension = 242
Check shell pair data                       ... done (  0.0 sec)
Shell pair information
Shell pair cut-off parameter TPreSel        ...   2.5e-12
Total number of shell pairs                 ...     29403
Shell pairs after pre-screening             ...     18268
Total number of primitive shell pairs       ...    165748
Primitive shell pairs kept                  ...     54357
          la=0 lb=0:   6948 shell pairs
          la=1 lb=0:   6129 shell pairs
          la=1 lb=1:   1358 shell pairs
          la=2 lb=0:   2464 shell pairs
          la=2 lb=1:   1136 shell pairs
          la=2 lb=2:    233 shell pairs

Calculating one electron integrals          ... done (  0.2 sec)
Calculating Nuclear repulsion               ... done (  0.0 sec) ENN=   3220.934358178642 Eh

Diagonalization of the overlap matrix:
Smallest eigenvalue                        ... 1.172e-03
Time for diagonalization                   ...    0.022 sec
Threshold for overlap eigenvalues          ... 1.000e-07
Number of eigenvalues below threshold      ... 0
Time for construction of square roots      ...    0.011 sec
Total time needed                          ...    0.034 sec

-------------------
DFT GRID GENERATION
-------------------

General Integration Accuracy     IntAcc      ... 4.388
Radial Grid Type                 RadialGrid  ... OptM3 with GC (2021)
Angular Grid (max. ang.)         AngularGrid ... 4 (Lebedev-302)
Angular grid pruning method      GridPruning ... 4 (adaptive)
Weight generation scheme         WeightScheme... mBecke (2022)
Basis function cutoff            BFCut       ... 1.0000e-11
Integration weight cutoff        WCut        ... 1.0000e-14
Partially contracted basis set               ... off
Rotationally invariant grid construction     ... off
Angular grids for H and He will be reduced by one unit

Total number of grid points                  ...   276059
Total number of batches                      ...     4343
Average number of points per batch           ...       63
Average number of grid points per atom       ...     4526
Initializing property integral containers    ... done (  0.0 sec)

SHARK setup successfully completed in   4.6 seconds

Maximum memory used throughout the entire STARTUP-calculation: 121.6 MB
Occupation numbers will be reassigned to an Aufbau configuration
             **** ENERGY FILE WAS UPDATED (monomer_hf_opt.en.tmp) ****
Finished Guess after   0.1 sec
Maximum memory used throughout the entire GUESS-calculation: 46.2 MB
----------------------------------------D-I-I-S--------------------------------------------
Iteration    Energy (Eh)           Delta-E    RMSDP     MaxDP     DIISErr   Damp  Time(sec)
-------------------------------------------------------------------------------------------
               ***  Starting incremental Fock matrix formation  ***
                              *** Initializing SOSCF ***
---------------------------------------S-O-S-C-F--------------------------------------
Iteration    Energy (Eh)           Delta-E    RMSDP     MaxDP     MaxGrad    Time(sec)
--------------------------------------------------------------------------------------
    1    -1466.5860892447899460     0.00e+00  3.80e-05  1.86e-03  7.36e-05    50.9
               *** Restarting incremental Fock matrix formation ***
    2    -1466.5862345958939841    -1.45e-04  2.09e-05  7.31e-04  2.16e-04    50.8
    3    -1466.5862612141972932    -2.66e-05  1.30e-05  4.70e-04  6.66e-05    34.5
    4    -1466.5862650576427768    -3.84e-06  1.69e-06  1.07e-04  1.55e-05    32.9
    5    -1466.5862651326478954    -7.50e-08  1.05e-06  7.91e-05  7.82e-06    26.9
    6    -1466.5862651531451775    -2.05e-08  2.90e-07  9.31e-06  2.26e-06    25.4
                  *** Gradient check signals convergence ***

               *****************************************************
               *                     SUCCESS                       *
               *           SCF CONVERGED AFTER   6 CYCLES          *
               *****************************************************

             **** ENERGY FILE WAS UPDATED (monomer_hf_opt.en.tmp) ****

----------------
TOTAL SCF ENERGY
----------------

Total Energy       :      -1466.58626515314518 Eh          -39907.84115 eV

Components:
Nuclear Repulsion  :       3220.93435817864247 Eh           87646.07973 eV
Electronic Energy  :      -4687.52062333178765 Eh         -127553.92088 eV
One Electron Energy:      -8416.62756159933269 Eh         -229028.07951 eV
Two Electron Energy:       3729.10693826754505 Eh          101474.15864 eV

Virial components:
Potential Energy   :      -2933.26378184469013 Eh          -79818.16538 eV
Kinetic Energy     :       1466.67751669154472 Eh           39910.32423 eV
Virial Ratio       :          1.99993778350226

---------------
SCF CONVERGENCE
---------------

  Last Energy change         ...    2.0497e-08  Tolerance :   1.0000e-08
  Last MAX-Density change    ...    9.3073e-06  Tolerance :   1.0000e-07
  Last RMS-Density change    ...    2.9003e-07  Tolerance :   5.0000e-09
  Last DIIS Error            ...    2.8388e-03  Tolerance :   5.0000e-07
  Last Orbital Gradient      ...    2.2601e-06  Tolerance :   1.0000e-05
  Last Orbital Rotation      ...    4.3327e-06  Tolerance :   1.0000e-05


Total SCF time: 0 days 0 hours 3 min 41 sec 
Finished LeanSCF after 221.5 sec

Maximum memory used throughout the entire LEANSCF-calculation: 48.8 MB

-------------------------   --------------------
FINAL SINGLE POINT ENERGY     -1466.586265153145
-------------------------   --------------------

------------------------------------------------------------------------------
                         ORCA SCF GRADIENT CALCULATION
------------------------------------------------------------------------------

Nuc. rep. gradient        (SHARK) ... done (  0.0 sec)
HCore & Overlap gradient  (SHARK) ... done (  3.0 sec)
Two-electron gradient     (SHARK) ... done (178.7 sec)

------------------
CARTESIAN GRADIENT
------------------

   1   O   :    0.000022194   -0.000021910    0.000010622
   2   C   :    0.000016615    0.000064238    0.000014827
   3   C   :    0.000037877    0.000021056    0.000067899
   4   H   :   -0.000044541   -0.000008565   -0.000030046
   5   C   :   -0.000090083   -0.000060305   -0.000021770
   6   C   :    0.000010609   -0.000060897    0.000024337
   7   C   :    0.000030804    0.000024127    0.000032424
   8   C   :    0.000021359    0.000066091   -0.000042251
   9   C   :   -0.000014071    0.000037545   -0.000027904
  10   C   :   -0.000063161   -0.000009100    0.000035667
  11   C   :    0.000041520    0.000043285   -0.000009940
  12   C   :    0.000011636   -0.000015268   -0.000002904
  13   H   :    0.000024677    0.000004628    0.000006857
  14   N   :    0.000039005   -0.000077349    0.000074418
  15   C   :   -0.000023000    0.000145010   -0.000045179
  16   C   :    0.000044713   -0.000140788   -0.000037392
  17   C   :    0.000124936    0.000076160    0.000014165
  18   C   :   -0.000077614   -0.000007485   -0.000212351
  19   O   :    0.000017698   -0.000028637    0.000190770
  20   C   :   -0.000047022   -0.000019557   -0.000092572
  21   C   :   -0.000069758    0.000106799    0.000047092
  22   O   :    0.000069521   -0.000090209   -0.000029962
  23   C   :   -0.000004424   -0.000018288   -0.000016583
  24   C   :   -0.000007598    0.000015463   -0.000018932
  25   O   :   -0.000009914   -0.000074360   -0.000019706
  26   O   :   -0.000010330    0.000008818   -0.000046412
  27   C   :    0.000048924   -0.000025456    0.000056777
  28   O   :    0.000004002    0.000002921    0.000052420
  29   C   :    0.000035494   -0.000026579    0.000034316
  30   O   :   -0.000005759   -0.000046224    0.000000999
  31   C   :    0.000030742    0.000056174   -0.000159076
  32   O   :   -0.000005308   -0.000026448    0.000091197
  33   H   :    0.000022719    0.000000067   -0.000018009
  34   H   :   -0.000012181   -0.000006209    0.000017722
  35   H   :    0.000003011   -0.000044469    0.000006894
  36   H   :   -0.000025181   -0.000015386   -0.000000478
  37   H   :   -0.000009313    0.000010162    0.000017324
  38   H   :    0.000005202   -0.000005617    0.000000862
  39   H   :   -0.000006828   -0.000028339   -0.000003530
  40   H   :   -0.000004535    0.000001570    0.000002252
  41   H   :   -0.000005040    0.000006391    0.000001073
  42   H   :   -0.000000730   -0.000015536   -0.000005545
  43   H   :    0.000028110   -0.000005607    0.000016197
  44   H   :   -0.000049141   -0.000024745   -0.000016754
  45   H   :   -0.000037233    0.000001547    0.000004873
  46   H   :    0.000000584    0.000012225   -0.000021362
  47   H   :    0.000005478   -0.000024362   -0.000000527
  48   H   :   -0.000045126    0.000016149    0.000003273
  49   H   :    0.000008145    0.000035988    0.000014919
  50   H   :    0.000001008   -0.000009794    0.000074388
  51   H   :   -0.000003536   -0.000009764    0.000033954
  52   H   :    0.000006174    0.000001324    0.000001605
  53   H   :   -0.000024450    0.000050078   -0.000013243
  54   H   :    0.000013089   -0.000006204    0.000015029
  55   H   :    0.000015413    0.000016947    0.000010612
  56   H   :   -0.000001454   -0.000000003    0.000006771
  57   H   :   -0.000008233    0.000046267    0.000025955
  58   H   :   -0.000009409    0.000002382   -0.000012563
  59   H   :   -0.000014914    0.000008609   -0.000064863
  60   H   :   -0.000008350    0.000008600   -0.000011504
  61   H   :   -0.000003019    0.000062838   -0.000027131

Difference to translation invariance:
           :   -0.0000000000    0.0000000000    0.0000000000

Difference to rotation invariance:
           :   -0.0000071038   -0.0000004981   -0.0000005989

Norm of the Cartesian gradient     ...    0.0006086832
RMS gradient                       ...    0.0000449952
MAX gradient                       ...    0.0002123513

-------
TIMINGS
-------

Total SCF gradient time     ....      181.661 sec

Densities                   ....       0.005 sec  (  0.0%)
One electron gradient       ....       2.971 sec  (  1.6%)
Two electron gradient       ....     178.685 sec  ( 98.4%)

Maximum memory used throughout the entire SCFGRAD-calculation: 105.6 MB
------------------------------------------------------------------------------
                         ORCA GEOMETRY RELAXATION STEP
------------------------------------------------------------------------------

Reading the OPT-File                    .... done
Getting information on internals        .... done
Copying old internal coords+grads       .... done
Making the new internal coordinates     .... (2022 redundants) done
Validating the new internal coordinates .... (2022 redundants) done
Calculating the B-matrix                .... done
Calculating the G,G- and P matrices     .... done
Transforming gradient to internals      .... done
Projecting the internal gradient        .... done
Number of atoms                         ....  61
Number of internal coordinates          .... 327
Current Energy                          .... -1466.586265153 Eh
Current gradient norm                   ....     0.000608683 Eh/bohr
Maximum allowed component of the step   ....  0.300
Current trust radius                    ....  0.700
Updating the Hessian (BFGS)             .... done
Forming the augmented Hessian           .... done
Diagonalizing the augmented Hessian     .... done
Last element of RFO vector              ....  0.999390155
Lowest eigenvalues of augmented Hessian:
 -0.000002993  0.000889550  0.002344433  0.008923014  0.012214136
Length of the computed step             ....  0.034940034
The final length of the internal step   ....  0.034940034
Converting the step to Cartesian space:
 Initial RMS(Int)=    0.0019321883
Transforming coordinates:
 Iter   0:  RMS(Cart)=    0.0054496016 RMS(Int)=    0.0019300002
done
Storing new coordinates                 .... done
The predicted energy change is          ....    -0.000001499
Previously predicted energy change      ....    -0.000004811
Actually observed energy change         ....    -0.000006096
Ratio of predicted to observed change   ....     1.267281764
New trust radius                        ....     0.700000000

                                .--------------------.
          ----------------------|Geometry convergence|-------------------------
          Item                value                   Tolerance       Converged
          ---------------------------------------------------------------------
          Energy change      -0.0000060963            0.0000050000      NO
          RMS gradient        0.0000256647            0.0001000000      YES
          MAX gradient        0.0001848696            0.0003000000      YES
          RMS step            0.0019321883            0.0020000000      YES
          MAX step            0.0223130577            0.0040000000      NO
          ........................................................
          Max(Bonds)      0.0118      Max(Angles)    0.03
          Max(Dihed)        0.42      Max(Improp)    0.00
          ---------------------------------------------------------------------

The optimization has not yet converged - more geometry cycles are needed


    ---------------------------------------------------------------------------
                         Redundant Internal Coordinates
                            (Angstroem and degrees)

        Definition                    Value    dE/dq     Step     New-Value
    ----------------------------------------------------------------------------
     1. B(C   1,O   0)                1.1906 -0.000023 -0.0000    1.1906   
     2. B(C   2,C   1)                1.5131  0.000032  0.0000    1.5131   
     3. B(H   3,C   2)                1.0839 -0.000012  0.0000    1.0839   
     4. B(C   4,C   2)                1.5357  0.000013 -0.0001    1.5357   
     5. B(C   5,C   4)                1.5600 -0.000046  0.0000    1.5600   
     6. B(C   6,C   5)                1.5093  0.000010 -0.0000    1.5093   
     7. B(C   7,C   6)                1.3188  0.000017  0.0000    1.3188   
     8. B(C   8,C   5)                1.5433  0.000043 -0.0001    1.5432   
     9. B(C   9,C   8)                1.5350  0.000003  0.0001    1.5351   
    10. B(C   9,C   2)                1.5509  0.000010  0.0001    1.5510   
    11. B(C  10,C   9)                1.5063 -0.000032  0.0000    1.5063   
    12. B(C  11,C  10)                1.3189  0.000004  0.0000    1.3189   
    13. B(H  12,C   4)                1.0828  0.000001 -0.0000    1.0827   
    14. B(N  13,C   1)                1.3830  0.000010  0.0000    1.3831   
    15. B(C  14,N  13)                1.4656 -0.000011 -0.0000    1.4655   
    16. B(C  15,C  14)                1.5295 -0.000011  0.0000    1.5295   
    17. B(C  16,C  15)                1.5323 -0.000035 -0.0000    1.5323   
    18. B(C  17,C  16)                1.5200 -0.000045 -0.0001    1.5199   
    19. B(O  18,C  17)                1.4078  0.000025 -0.0000    1.4078   
    20. B(C  19,O  18)                1.4028 -0.000029 -0.0000    1.4028   
    21. B(C  20,C  19)                1.5262 -0.000011 -0.0000    1.5262   
    22. B(O  21,C  20)                1.4036 -0.000064  0.0000    1.4036   
    23. B(C  22,C  20)                1.5366  0.000027  0.0000    1.5366   
    24. B(C  23,C  22)                1.5249  0.000002  0.0000    1.5249   
    25. B(O  24,C  23)                1.3952  0.000029  0.0000    1.3952   
    26. B(O  25,C  22)                1.4058  0.000014 -0.0000    1.4058   
    27. B(C  26,O  25)                1.3847 -0.000041  0.0000    1.3847   
    28. B(O  27,C  26)                1.3774  0.000004  0.0000    1.3775   
    29. B(C  28,C  26)                1.5206  0.000009 -0.0000    1.5206   
    30. B(C  28,C  19)                1.5210  0.000024 -0.0000    1.5209   
    31. B(O  29,C  28)                1.4021  0.000030 -0.0001    1.4020   
    32. B(C  30,N  13)                1.3760  0.000001 -0.0000    1.3759   
    33. B(C  30,C   4)                1.5148  0.000033 -0.0000    1.5148   
    34. B(O  31,C  30)                1.1963 -0.000010 -0.0000    1.1963   
    35. B(H  32,C   5)                1.0826  0.000000  0.0000    1.0826   
    36. B(H  33,C   6)                1.0788 -0.000009  0.0000    1.0788   
    37. B(H  34,C   7)                1.0753 -0.000013  0.0000    1.0753   
    38. B(H  35,C   7)                1.0763  0.000013 -0.0000    1.0763   
    39. B(H  36,C   8)                1.0865  0.000011 -0.0000    1.0865   
    40. B(H  37,C   8)                1.0838 -0.000003  0.0000    1.0838   
    41. B(H  38,C   9)                1.0881 -0.000016 -0.0000    1.0880   
    42. B(H  39,C  10)                1.0782  0.000002  0.0000    1.0782   
    43. B(H  40,C  11)                1.0752  0.000008 -0.0000    1.0752   
    44. B(H  41,C  11)                1.0754  0.000016 -0.0000    1.0754   
    45. B(H  42,C  14)                1.0762  0.000026  0.0000    1.0762   
    46. B(H  43,C  14)                1.0823 -0.000026  0.0000    1.0823   
    47. B(H  44,C  15)                1.0838  0.000027 -0.0000    1.0838   
    48. B(H  45,C  15)                1.0849  0.000002  0.0000    1.0849   
    49. B(H  46,C  16)                1.0874  0.000001 -0.0000    1.0874   
    50. B(H  47,C  16)                1.0864 -0.000003  0.0000    1.0864   
    51. B(H  48,C  17)                1.0884 -0.000017  0.0000    1.0884   
    52. B(H  48,H  34)                3.4728  0.000019 -0.0118    3.4610   
    53. B(H  49,C  17)                1.0807  0.000045 -0.0000    1.0806   
    54. B(H  50,C  19)                1.0889 -0.000002  0.0000    1.0889   
    55. B(H  51,C  20)                1.0837  0.000005 -0.0000    1.0837   
    56. B(H  52,O  21)                0.9516 -0.000010 -0.0000    0.9516   
    57. B(H  52,O  31)                2.2181 -0.000011  0.0042    2.2223   
    58. B(H  53,C  22)                1.0904 -0.000006  0.0000    1.0905   
    59. B(H  54,C  23)                1.0807 -0.000001  0.0000    1.0807   
    60. B(H  55,C  23)                1.0884  0.000002 -0.0000    1.0884   
    61. B(H  56,O  24)                0.9494  0.000034 -0.0000    0.9494   
    62. B(H  56,O  21)                2.1168 -0.000004 -0.0001    2.1167   
    63. B(H  57,C  26)                1.0917  0.000007  0.0000    1.0917   
    64. B(H  58,O  27)                0.9499  0.000064 -0.0000    0.9499   
    65. B(H  58,O  29)                2.3745 -0.000006  0.0011    2.3756   
    66. B(H  59,C  28)                1.0862 -0.000001  0.0000    1.0862   
    67. B(H  60,O  29)                0.9484  0.000058  0.0000    0.9484   
    68. A(O   0,C   1,N  13)          124.39 -0.000019    0.00    124.39   
    69. A(O   0,C   1,C   2)          126.92  0.000016    0.00    126.92   
    70. A(C   2,C   1,N  13)          108.69  0.000003   -0.00    108.69   
    71. A(C   1,C   2,H   3)          107.56  0.000036   -0.01    107.55   
    72. A(H   3,C   2,C   4)          112.24  0.000004   -0.01    112.23   
    73. A(H   3,C   2,C   9)          110.39 -0.000009    0.00    110.39   
    74. A(C   1,C   2,C   9)          115.06 -0.000014    0.01    115.07   
    75. A(C   4,C   2,C   9)          107.05 -0.000007    0.02    107.07   
    76. A(C   1,C   2,C   4)          104.49 -0.000010   -0.01    104.48   
    77. A(H  12,C   4,C  30)          107.26  0.000017    0.03    107.29   
    78. A(C   2,C   4,H  12)          112.42 -0.000001    0.01    112.43   
    79. A(C   5,C   4,C  30)          116.93 -0.000056   -0.01    116.92   
    80. A(C   2,C   4,C   5)          106.68  0.000015   -0.02    106.66   
    81. A(C   2,C   4,C  30)          104.69  0.000008    0.01    104.69   
    82. A(C   5,C   4,H  12)          108.93  0.000016   -0.01    108.92   
    83. A(C   6,C   5,C   8)          111.60  0.000023    0.00    111.60   
    84. A(C   4,C   5,C   8)          101.43  0.000002   -0.01    101.42   
    85. A(C   6,C   5,H  32)          107.94  0.000003    0.01    107.95   
    86. A(C   4,C   5,H  32)          109.54  0.000015    0.00    109.54   
    87. A(C   4,C   5,C   6)          115.09 -0.000069   -0.01    115.09   
    88. A(C   8,C   5,H  32)          111.18  0.000028    0.00    111.18   
    89. A(C   5,C   6,C   7)          124.40  0.000016    0.03    124.43   
    90. A(C   5,C   6,H  33)          116.99 -0.000028   -0.01    116.97   
    91. A(C   7,C   6,H  33)          118.59  0.000012   -0.02    118.57   
    92. A(C   6,C   7,H  35)          121.90 -0.000035    0.01    121.91   
    93. A(C   6,C   7,H  34)          121.58  0.000051   -0.03    121.55   
    94. A(H  34,C   7,H  35)          116.51 -0.000016    0.02    116.54   
    95. A(C   9,C   8,H  36)          109.57  0.000008   -0.00    109.57   
    96. A(C   5,C   8,H  36)          109.11  0.000001   -0.01    109.10   
    97. A(H  36,C   8,H  37)          107.78 -0.000010    0.01    107.79   
    98. A(C   5,C   8,C   9)          104.86 -0.000006    0.01    104.87   
    99. A(C   5,C   8,H  37)          112.43  0.000000    0.01    112.44   
   100. A(C   9,C   8,H  37)          113.02  0.000007   -0.00    113.02   
   101. A(C   2,C   9,C  10)          112.98  0.000005   -0.01    112.97   
   102. A(C  10,C   9,H  38)          106.65  0.000007   -0.01    106.63   
   103. A(C   2,C   9,C   8)          102.64  0.000005    0.01    102.64   
   104. A(C   8,C   9,H  38)          108.59 -0.000035    0.02    108.60   
   105. A(C   2,C   9,H  38)          108.13  0.000002    0.01    108.14   
   106. A(C   8,C   9,C  10)          117.53  0.000014   -0.01    117.52   
   107. A(C   9,C  10,H  39)          114.22  0.000029   -0.00    114.21   
   108. A(C  11,C  10,H  39)          119.14  0.000018   -0.01    119.13   
   109. A(C   9,C  10,C  11)          126.64 -0.000047    0.01    126.65   
   110. A(H  40,C  11,H  41)          116.23  0.000003    0.01    116.24   
   111. A(C  10,C  11,H  41)          122.86 -0.000003   -0.01    122.85   
   112. A(C  10,C  11,H  40)          120.91 -0.000001   -0.00    120.91   
   113. A(C   1,N  13,C  30)          113.16  0.000008    0.00    113.17   
   114. A(C   1,N  13,C  14)          122.29 -0.000082   -0.00    122.29   
   115. A(C  14,N  13,C  30)          123.92  0.000076    0.00    123.93   
   116. A(N  13,C  14,C  15)          115.53  0.000043    0.01    115.53   
   117. A(H  42,C  14,H  43)          107.94  0.000009    0.00    107.94   
   118. A(C  15,C  14,H  43)          108.47  0.000007   -0.00    108.47   
   119. A(N  13,C  14,H  43)          106.99 -0.000050    0.01    107.00   
   120. A(C  15,C  14,H  42)          110.87 -0.000010   -0.00    110.86   
   121. A(N  13,C  14,H  42)          106.75 -0.000001   -0.01    106.74   
   122. A(H  44,C  15,H  45)          106.89  0.000022   -0.01    106.88   
   123. A(C  14,C  15,C  16)          117.18  0.000185   -0.01    117.17   
   124. A(C  16,C  15,H  45)          108.85 -0.000049    0.01    108.86   
   125. A(C  14,C  15,H  45)          105.78 -0.000041   -0.01    105.78   
   126. A(C  16,C  15,H  44)          108.48 -0.000067    0.01    108.50   
   127. A(C  14,C  15,H  44)          109.19 -0.000059    0.01    109.20   
   128. A(C  17,C  16,H  47)          109.23  0.000048   -0.01    109.22   
   129. A(H  46,C  16,H  47)          106.20 -0.000010    0.01    106.20   
   130. A(C  15,C  16,H  47)          107.82 -0.000057    0.01    107.83   
   131. A(C  17,C  16,H  46)          107.07 -0.000062    0.01    107.08   
   132. A(C  15,C  16,H  46)          110.14  0.000010    0.00    110.14   
   133. A(C  15,C  16,C  17)          115.96  0.000065   -0.02    115.95   
   134. A(C  16,C  17,O  18)          110.17 -0.000013   -0.00    110.17   
   135. A(O  18,C  17,H  49)          109.81 -0.000055    0.02    109.83   
   136. A(C  16,C  17,H  49)          110.39  0.000007    0.00    110.39   
   137. A(O  18,C  17,H  48)          109.70  0.000048   -0.01    109.68   
   138. A(C  16,C  17,H  48)          109.49 -0.000022    0.01    109.50   
   139. A(H  48,C  17,H  49)          107.24  0.000037   -0.02    107.22   
   140. A(C  17,O  18,C  19)          115.58 -0.000025   -0.00    115.58   
   141. A(O  18,C  19,C  20)          112.11 -0.000010    0.03    112.14   
   142. A(C  28,C  19,H  50)          108.16  0.000011   -0.01    108.15   
   143. A(C  20,C  19,H  50)          109.02 -0.000014    0.01    109.03   
   144. A(O  18,C  19,H  50)          109.56  0.000012   -0.00    109.56   
   145. A(C  20,C  19,C  28)          108.87 -0.000004   -0.00    108.87   
   146. A(O  18,C  19,C  28)          109.03  0.000007   -0.03    109.00   
   147. A(O  21,C  20,C  22)          111.53 -0.000006    0.02    111.55   
   148. A(C  19,C  20,C  22)          109.21 -0.000014    0.00    109.21   
   149. A(C  19,C  20,O  21)          113.88 -0.000001    0.01    113.89   
   150. A(O  21,C  20,H  51)          105.55  0.000010   -0.02    105.53   
   151. A(C  19,C  20,H  51)          108.34  0.000021   -0.00    108.34   
   152. A(C  22,C  20,H  51)          108.08 -0.000009   -0.00    108.07   
   153. A(C  20,O  21,H  52)          113.35 -0.000007    0.01    113.36   
   154. A(O  25,C  22,H  53)          110.17 -0.000001    0.00    110.17   
   155. A(C  23,C  22,H  53)          108.03 -0.000021   -0.00    108.03   
   156. A(C  20,C  22,H  53)          109.33  0.000020    0.00    109.33   
   157. A(C  23,C  22,O  25)          106.63  0.000006   -0.00    106.62   
   158. A(C  20,C  22,O  25)          109.23  0.000001    0.00    109.23   
   159. A(C  20,C  22,C  23)          113.41 -0.000006    0.00    113.41   
   160. A(H  54,C  23,H  55)          107.66 -0.000006   -0.00    107.66   
   161. A(C  22,C  23,H  55)          109.29  0.000016    0.01    109.30   
   162. A(O  24,C  23,H  54)          107.28 -0.000000    0.00    107.28   
   163. A(C  22,C  23,H  54)          108.20  0.000002   -0.00    108.20   
   164. A(O  24,C  23,H  55)          111.71 -0.000007   -0.00    111.71   
   165. A(C  22,C  23,O  24)          112.50 -0.000005    0.00    112.50   
   166. A(C  23,O  24,H  56)          108.51 -0.000013   -0.01    108.50   
   167. A(C  22,O  25,C  26)          114.67  0.000003    0.01    114.68   
   168. A(C  28,C  26,H  57)          109.36 -0.000004   -0.01    109.35   
   169. A(O  27,C  26,H  57)          110.41 -0.000000    0.00    110.42   
   170. A(O  25,C  26,H  57)          109.77  0.000004    0.01    109.77   
   171. A(O  27,C  26,C  28)          111.50 -0.000007    0.00    111.50   
   172. A(O  25,C  26,C  28)          109.22 -0.000004    0.01    109.22   
   173. A(O  25,C  26,O  27)          106.53  0.000011   -0.01    106.52   
   174. A(C  26,O  27,H  58)          108.01  0.000015    0.00    108.01   
   175. A(O  29,C  28,H  59)          110.47 -0.000022    0.00    110.47   
   176. A(C  26,C  28,H  59)          107.55  0.000006    0.00    107.55   
   177. A(C  19,C  28,H  59)          109.22  0.000010    0.00    109.22   
   178. A(C  26,C  28,O  29)          107.43 -0.000003    0.00    107.43   
   179. A(C  19,C  28,O  29)          111.78  0.000000   -0.01    111.77   
   180. A(C  19,C  28,C  26)          110.30  0.000010   -0.00    110.29   
   181. A(C  28,O  29,H  60)          108.72  0.000028   -0.02    108.70   
   182. A(N  13,C  30,O  31)          125.27  0.000037    0.00    125.27   
   183. A(C   4,C  30,O  31)          126.13 -0.000030    0.00    126.13   
   184. A(C   4,C  30,N  13)          108.59 -0.000007   -0.01    108.59   
   185. D(C   9,C   2,C   1,O   0)     59.99  0.000017   -0.13     59.87   
   186. D(H   3,C   2,C   1,N  13)    115.90  0.000040   -0.16    115.75   
   187. D(H   3,C   2,C   1,O   0)    -63.47  0.000011   -0.12    -63.60   
   188. D(C   4,C   2,C   1,N  13)     -3.56  0.000024   -0.14     -3.69   
   189. D(C   4,C   2,C   1,O   0)    177.07 -0.000006   -0.10    176.96   
   190. D(C   5,C   4,C   2,H   3)    124.82 -0.000002    0.17    124.99   
   191. D(H  12,C   4,C   2,H   3)      5.48 -0.000031    0.18      5.67   
   192. D(C   5,C   4,C   2,C   1)   -118.92  0.000037    0.14   -118.78   
   193. D(H  12,C   4,C   2,C   1)    121.74  0.000008    0.16    121.90   
   194. D(H  12,C   4,C   2,C   9)   -115.79 -0.000017    0.18   -115.62   
   195. D(C   5,C   4,C   2,C   9)      3.54  0.000012    0.16      3.70   
   196. D(C   6,C   5,C   4,C  30)    -22.98  0.000006   -0.11    -23.09   
   197. D(C   8,C   5,C   4,C  30)   -143.60  0.000011   -0.10   -143.70   
   198. D(C   8,C   5,C   4,C   2)    -26.92 -0.000002   -0.12    -27.03   
   199. D(C   6,C   5,C   4,C   2)     93.70 -0.000007   -0.12     93.58   
   200. D(C   6,C   5,C   4,H  12)   -144.72  0.000010   -0.13   -144.85   
   201. D(C   8,C   5,C   4,H  12)     94.66  0.000015   -0.12     94.54   
   202. D(C   7,C   6,C   5,C   8)   -127.37 -0.000018   -0.14   -127.51   
   203. D(H  33,C   6,C   5,C   4)    -64.04  0.000021   -0.12    -64.16   
   204. D(C   7,C   6,C   5,C   4)    117.75  0.000008   -0.13    117.62   
   205. D(C   7,C   6,C   5,H  32)     -4.92  0.000033   -0.13     -5.05   
   206. D(H  33,C   6,C   5,C   8)     50.84 -0.000004   -0.13     50.71   
   207. D(H  35,C   7,C   6,C   5)     -1.63  0.000028   -0.00     -1.63   
   208. D(H  34,C   7,C   6,H  33)      0.11  0.000008   -0.00      0.11   
   209. D(H  34,C   7,C   6,C   5)    178.30  0.000020    0.00    178.30   
   210. D(H  35,C   7,C   6,H  33)   -179.82  0.000015   -0.01   -179.82   
   211. D(H  36,C   8,C   5,C   4)    -76.28 -0.000015    0.04    -76.24   
   212. D(H  36,C   8,C   5,C   6)    160.67  0.000054    0.05    160.72   
   213. D(C   9,C   8,C   5,H  32)    157.40  0.000022    0.03    157.43   
   214. D(C   9,C   8,C   5,C   6)    -82.03  0.000060    0.04    -81.99   
   215. D(C   9,C   8,C   5,C   4)     41.02 -0.000008    0.03     41.05   
   216. D(H  36,C   8,C   5,H  32)     40.10  0.000015    0.03     40.13   
   217. D(C  10,C   9,C   8,H  37)     73.45 -0.000002    0.07     73.52   
   218. D(C  10,C   9,C   8,C   5)   -163.75 -0.000001    0.08   -163.67   
   219. D(C   2,C   9,C   8,H  37)   -161.94  0.000017    0.06   -161.88   
   220. D(C   2,C   9,C   8,H  36)     77.85  0.000019    0.06     77.91   
   221. D(C   2,C   9,C   8,C   5)    -39.14  0.000017    0.07    -39.07   
   222. D(C  10,C   9,C   2,C   4)    149.07  0.000014   -0.15    148.91   
   223. D(C  10,C   9,C   2,C   1)    -95.32 -0.000011   -0.15    -95.47   
   224. D(C   8,C   9,C   2,C   4)     21.51 -0.000010   -0.14     21.37   
   225. D(C   8,C   9,C   2,H   3)   -100.93 -0.000005   -0.14   -101.07   
   226. D(C  10,C   9,C   8,H  36)    -46.76  0.000001    0.07    -46.69   
   227. D(C   8,C   9,C   2,C   1)    137.12 -0.000035   -0.13    136.99   
   228. D(C  10,C   9,C   2,H   3)     26.63  0.000019   -0.16     26.47   
   229. D(H  39,C  10,C   9,C   8)    174.93  0.000015   -0.01    174.92   
   230. D(H  39,C  10,C   9,C   2)     55.65 -0.000006   -0.00     55.65   
   231. D(C  11,C  10,C   9,H  38)    116.13 -0.000012   -0.01    116.11   
   232. D(C  11,C  10,C   9,C   8)     -5.95  0.000019   -0.02     -5.96   
   233. D(C  11,C  10,C   9,C   2)   -125.22 -0.000002   -0.01   -125.23   
   234. D(H  41,C  11,C  10,H  39)    179.29  0.000004   -0.01    179.29   
   235. D(H  41,C  11,C  10,C   9)      0.20 -0.000001    0.01      0.21   
   236. D(H  40,C  11,C  10,H  39)     -0.33  0.000005   -0.01     -0.34   
   237. D(H  40,C  11,C  10,C   9)   -179.42  0.000000    0.01   -179.41   
   238. D(C  30,N  13,C   1,C   2)     -0.26 -0.000023    0.10     -0.16   
   239. D(C  30,N  13,C   1,O   0)    179.14  0.000006    0.07    179.21   
   240. D(C  14,N  13,C   1,C   2)   -171.53 -0.000044    0.07   -171.46   
   241. D(C  14,N  13,C   1,O   0)      7.86 -0.000015    0.04      7.90   
   242. D(H  43,C  14,N  13,C   1)     46.51  0.000009   -0.00     46.51   
   243. D(H  42,C  14,N  13,C  30)     -8.45 -0.000019   -0.03     -8.48   
   244. D(H  42,C  14,N  13,C   1)    161.87 -0.000005    0.00    161.87   
   245. D(C  15,C  14,N  13,C  30)    115.33 -0.000005   -0.04    115.29   
   246. D(C  15,C  14,N  13,C   1)    -74.35  0.000010   -0.00    -74.36   
   247. D(C  16,C  15,C  14,N  13)    -55.62 -0.000005    0.08    -55.54   
   248. D(H  44,C  15,C  14,H  43)    -51.89  0.000026    0.08    -51.81   
   249. D(H  44,C  15,C  14,H  42)   -170.24  0.000016    0.08   -170.16   
   250. D(H  44,C  15,C  14,N  13)     68.17 -0.000005    0.09     68.26   
   251. D(C  16,C  15,C  14,H  43)   -175.68  0.000026    0.07   -175.61   
   252. D(C  16,C  15,C  14,H  42)     65.97  0.000016    0.07     66.04   
   253. D(H  46,C  16,C  15,H  45)   -166.99  0.000029   -0.11   -167.09   
   254. D(H  46,C  16,C  15,H  44)    -51.03 -0.000008   -0.11    -51.13   
   255. D(H  46,C  16,C  15,C  14)     73.12 -0.000005   -0.10     73.02   
   256. D(C  17,C  16,C  15,H  45)     71.25  0.000055   -0.11     71.14   
   257. D(C  17,C  16,C  15,H  44)   -172.79  0.000019   -0.11   -172.90   
   258. D(C  17,C  16,C  15,C  14)    -48.64  0.000021   -0.10    -48.74   
   259. D(H  48,C  17,C  16,H  47)    -52.50  0.000021   -0.27    -52.77   
   260. D(H  48,C  17,C  16,H  46)     62.09  0.000001   -0.26     61.83   
   261. D(H  48,C  17,C  16,C  15)   -174.53  0.000011   -0.26   -174.78   
   262. D(O  18,C  17,C  16,H  47)     68.22  0.000058   -0.28     67.94   
   263. D(O  18,C  17,C  16,H  46)   -177.19  0.000037   -0.27   -177.46   
   264. D(O  18,C  17,C  16,C  15)    -53.81  0.000048   -0.27    -54.08   
   265. D(C  19,O  18,C  17,H  49)     47.60  0.000065   -0.10     47.50   
   266. D(C  19,O  18,C  17,H  48)    -70.01  0.000023   -0.09    -70.10   
   267. D(C  19,O  18,C  17,C  16)    169.39  0.000029   -0.09    169.30   
   268. D(H  50,C  19,O  18,C  17)      4.62 -0.000020    0.42      5.04   
   269. D(C  28,C  19,O  18,C  17)    122.81  0.000004    0.40    123.21   
   270. D(C  20,C  19,O  18,C  17)   -116.56 -0.000003    0.40   -116.16   
   271. D(C  22,C  20,C  19,H  50)     63.45  0.000003   -0.02     63.43   
   272. D(C  22,C  20,C  19,C  28)    -54.34  0.000001   -0.01    -54.35   
   273. D(C  22,C  20,C  19,O  18)   -175.06  0.000002    0.00   -175.06   
   274. D(O  21,C  20,C  19,H  50)    -61.95  0.000022   -0.04    -61.99   
   275. D(O  21,C  20,C  19,C  28)   -179.74  0.000020   -0.04   -179.77   
   276. D(O  21,C  20,C  19,O  18)     59.54  0.000021   -0.02     59.52   
   277. D(H  52,O  21,C  20,H  51)    155.68 -0.000016    0.22    155.90   
   278. D(H  52,O  21,C  20,C  22)    -87.19 -0.000024    0.22    -86.98   
   279. D(H  52,O  21,C  20,C  19)     36.96 -0.000048    0.23     37.20   
   280. D(O  25,C  22,C  20,H  51)    -60.97 -0.000002   -0.00    -60.97   
   281. D(O  25,C  22,C  20,O  21)   -176.56 -0.000006    0.01   -176.55   
   282. D(O  25,C  22,C  20,C  19)     56.69  0.000010   -0.01     56.69   
   283. D(C  23,C  22,C  20,H  51)     57.80  0.000003   -0.00     57.79   
   284. D(C  23,C  22,C  20,O  21)    -57.79 -0.000001    0.01    -57.78   
   285. D(C  23,C  22,C  20,C  19)    175.46  0.000015   -0.01    175.45   
   286. D(H  54,C  23,C  22,H  53)     68.69  0.000003   -0.03     68.66   
   287. D(H  54,C  23,C  22,O  25)    -49.71  0.000011   -0.03    -49.74   
   288. D(H  54,C  23,C  22,C  20)   -169.97  0.000009   -0.03   -170.00   
   289. D(O  24,C  23,C  22,H  53)    -49.65  0.000005   -0.03    -49.68   
   290. D(O  24,C  23,C  22,O  25)   -168.05  0.000014   -0.03   -168.08   
   291. D(O  24,C  23,C  22,C  20)     71.70  0.000011   -0.03     71.67   
   292. D(H  56,O  24,C  23,H  55)     67.05 -0.000014   -0.01     67.04   
   293. D(H  56,O  24,C  23,H  54)   -175.19 -0.000026   -0.01   -175.20   
   294. D(H  56,O  24,C  23,C  22)    -56.31 -0.000027   -0.01    -56.32   
   295. D(C  26,O  25,C  22,H  53)     57.48  0.000008    0.03     57.51   
   296. D(C  26,O  25,C  22,C  23)    174.47 -0.000014    0.02    174.49   
   297. D(C  26,O  25,C  22,C  20)    -62.63 -0.000016    0.02    -62.60   
   298. D(H  57,C  26,O  25,C  22)    -57.39  0.000004   -0.02    -57.41   
   299. D(C  28,C  26,O  25,C  22)     62.50 -0.000001   -0.02     62.48   
   300. D(O  27,C  26,O  25,C  22)   -176.94 -0.000004   -0.02   -176.97   
   301. D(H  58,O  27,C  26,H  57)     72.76 -0.000016   -0.12     72.63   
   302. D(H  58,O  27,C  26,C  28)    -49.03 -0.000006   -0.12    -49.15   
   303. D(H  58,O  27,C  26,O  25)   -168.11 -0.000005   -0.12   -168.23   
   304. D(C  19,C  28,C  26,O  25)    -57.25  0.000006    0.01    -57.24   
   305. D(O  29,C  28,C  19,H  50)     55.95  0.000015   -0.00     55.95   
   306. D(O  29,C  28,C  19,C  20)    174.28  0.000001    0.01    174.28   
   307. D(O  29,C  28,C  19,O  18)    -63.13 -0.000010    0.02    -63.11   
   308. D(C  26,C  28,C  19,H  50)    -63.51  0.000012    0.01    -63.50   
   309. D(C  26,C  28,C  19,C  20)     54.82 -0.000001    0.01     54.83   
   310. D(C  19,C  28,C  26,O  27)   -174.71 -0.000002    0.01   -174.70   
   311. D(C  26,C  28,C  19,O  18)    177.42 -0.000012    0.03    177.45   
   312. D(O  29,C  28,C  26,H  57)    -59.16  0.000002    0.03    -59.13   
   313. D(O  29,C  28,C  26,O  27)     63.23 -0.000005    0.03     63.26   
   314. D(O  29,C  28,C  26,O  25)   -179.30  0.000002    0.02   -179.28   
   315. D(C  19,C  28,C  26,H  57)     62.89  0.000006    0.01     62.91   
   316. D(H  60,O  29,C  28,H  59)    -54.80  0.000018   -0.29    -55.09   
   317. D(H  60,O  29,C  28,C  26)   -171.83  0.000025   -0.30   -172.13   
   318. D(H  60,O  29,C  28,C  19)     67.04  0.000015   -0.29     66.75   
   319. D(O  31,C  30,N  13,C   1)   -174.99  0.000047   -0.05   -175.04   
   320. D(C   4,C  30,N  13,C  14)    175.20  0.000016    0.01    175.21   
   321. D(C   4,C  30,N  13,C   1)      4.10  0.000011   -0.02      4.08   
   322. D(O  31,C  30,C   4,C   5)    -69.20 -0.000039   -0.06    -69.26   
   323. D(O  31,C  30,C   4,C   2)    173.03 -0.000031   -0.04    172.99   
   324. D(N  13,C  30,C   4,H  12)   -125.68 -0.000007   -0.09   -125.76   
   325. D(N  13,C  30,C   4,C   5)    111.72 -0.000004   -0.09    111.63   
   326. D(O  31,C  30,N  13,C  14)     -3.88  0.000052   -0.02     -3.90   
   327. D(N  13,C  30,C   4,C   2)     -6.05  0.000004   -0.07     -6.12   
    ----------------------------------------------------------------------------

Geometry step timings:
Preparation and reading OPT file:      0.003 s ( 8.475 %)
Internal coordinates            :      0.000 s ( 0.151 %)
B/P matrices and projection     :      0.011 s (38.294 %)
Hessian update/contruction      :      0.004 s (11.965 %)
Making the step                 :      0.007 s (24.724 %)
Converting the step to Cartesian:      0.001 s ( 3.222 %)
Storing new data                :      0.000 s ( 1.079 %)
Checking convergence            :      0.000 s ( 0.178 %)
Final printing                  :      0.004 s (11.898 %)
Total time                      :      0.030 s

Time for energy+gradient        :    408.098 s
Time for complete geometry iter :    408.199 s

         *************************************************************
         *                GEOMETRY OPTIMIZATION CYCLE  13            *
         *************************************************************
---------------------------------
CARTESIAN COORDINATES (ANGSTROEM)
---------------------------------
  O     -2.725220    2.672812    1.763765
  C     -2.526582    1.512579    1.584891
  C     -3.545587    0.395750    1.647465
  H     -3.919065    0.350702    2.663993
  C     -2.757982   -0.864769    1.261400
  C     -3.421432   -1.427530   -0.033462
  C     -2.796010   -0.963950   -1.326442
  C     -2.221504   -1.762180   -2.205108
  C     -4.867981   -0.911012    0.115157
  C     -4.721923    0.522496    0.644613
  C     -5.941372    1.169327    1.247620
  C     -7.163451    0.674060    1.274189
  H     -2.791386   -1.624860    2.031765
  N     -1.289048    0.967613    1.294355
  C     -0.055211    1.756921    1.343381
  C      0.146851    2.737138    0.186772
  C      0.102429    2.162817   -1.233071
  C      0.949155    0.924247   -1.476140
  O      2.281985    1.164364   -1.091719
  C      3.112165    0.034541   -1.046049
  C      3.613039   -0.254443    0.366345
  O      2.587926   -0.487387    1.296390
  C      4.609367   -1.423343    0.320085
  C      5.255385   -1.722579    1.668630
  O      4.364621   -2.307253    2.569367
  O      5.654501   -1.106125   -0.564969
  C      5.262313   -0.920048   -1.879907
  O      6.411970   -0.689376   -2.602716
  C      4.309593    0.262703   -1.955614
  O      3.924420    0.406709   -3.295979
  C     -1.320498   -0.400311    1.149366
  O     -0.364458   -1.099287    0.980684
  H     -3.388794   -2.509472   -0.016223
  H     -2.854027    0.090339   -1.547713
  H     -1.813568   -1.384847   -3.125670
  H     -2.136938   -2.822453   -2.040548
  H     -5.388835   -1.518945    0.849769
  H     -5.424017   -0.965139   -0.813539
  H     -4.401683    1.163884   -0.173851
  H     -5.759010    2.140304    1.679532
  H     -7.971895    1.222283    1.723447
  H     -7.414584   -0.282396    0.851597
  H      0.759392    1.055779    1.398312
  H     -0.075175    2.317973    2.268687
  H     -0.587647    3.530778    0.259787
  H      1.118464    3.191059    0.351178
  H     -0.919940    1.908796   -1.502472
  H      0.410702    2.946978   -1.918839
  H      0.913789    0.661464   -2.531742
  H      0.553989    0.083740   -0.923767
  H      2.567176   -0.833429   -1.413941
  H      4.138974    0.621499    0.727499
  H      1.853750   -0.973048    0.934936
  H      4.093714   -2.324093   -0.014354
  H      6.059195   -2.427132    1.508920
  H      5.691499   -0.809347    2.069083
  H      3.613558   -1.734511    2.665075
  H      4.756413   -1.816044   -2.244761
  H      6.159859   -0.379217   -3.464423
  H      4.851610    1.142010   -1.619532
  H      3.428520    1.210176   -3.385193

----------------------------
CARTESIAN COORDINATES (A.U.)
----------------------------
  NO LB      ZA    FRAG     MASS         X           Y           Z
   0 O     8.0000    0    15.999   -5.149920    5.050884    3.333032
   1 C     6.0000    0    12.011   -4.774548    2.858360    2.995011
   2 C     6.0000    0    12.011   -6.700189    0.747859    3.113258
   3 H     1.0000    0     1.008   -7.405960    0.662731    5.034217
   4 C     6.0000    0    12.011   -5.211832   -1.634177    2.383700
   5 C     6.0000    0    12.011   -6.465569   -2.697640   -0.063234
   6 C     6.0000    0    12.011   -5.283694   -1.821602   -2.506612
   7 C     6.0000    0    12.011   -4.198034   -3.330038   -4.167050
   8 C     6.0000    0    12.011   -9.199150   -1.721563    0.217615
   9 C     6.0000    0    12.011   -8.923141    0.987374    1.218143
  10 C     6.0000    0    12.011  -11.227566    2.209708    2.357661
  11 C     6.0000    0    12.011  -13.536961    1.273790    2.407867
  12 H     1.0000    0     1.008   -5.274956   -3.070540    3.839480
  13 N     7.0000    0    14.007   -2.435948    1.828524    2.445976
  14 C     6.0000    0    12.011   -0.104334    3.320099    2.538623
  15 C     6.0000    0    12.011    0.277509    5.172441    0.352948
  16 C     6.0000    0    12.011    0.193564    4.087131   -2.330167
  17 C     6.0000    0    12.011    1.793644    1.746574   -2.789501
  18 O     8.0000    0    15.999    4.312327    2.200329   -2.063050
  19 C     6.0000    0    12.011    5.881140    0.065274   -1.976746
  20 C     6.0000    0    12.011    6.827655   -0.480828    0.692291
  21 O     8.0000    0    15.999    4.890472   -0.921028    2.449823
  22 C     6.0000    0    12.011    8.710441   -2.689729    0.604873
  23 C     6.0000    0    12.011    9.931238   -3.255202    3.153253
  24 O     8.0000    0    15.999    8.247938   -4.360076    4.855400
  25 O     8.0000    0    15.999   10.685459   -2.090273   -1.067637
  26 C     6.0000    0    12.011    9.944331   -1.738639   -3.552509
  27 O     8.0000    0    15.999   12.116867   -1.302733   -4.918421
  28 C     6.0000    0    12.011    8.143950    0.496437   -3.695576
  29 O     8.0000    0    15.999    7.416080    0.768569   -6.228497
  30 C     6.0000    0    12.011   -2.495379   -0.756479    2.171987
  31 O     8.0000    0    15.999   -0.688726   -2.077352    1.853224
  32 H     1.0000    0     1.008   -6.403893   -4.742215   -0.030657
  33 H     1.0000    0     1.008   -5.393329    0.170715   -2.924754
  34 H     1.0000    0     1.008   -3.427147   -2.616981   -5.906660
  35 H     1.0000    0     1.008   -4.038227   -5.333663   -3.856078
  36 H     1.0000    0     1.008  -10.183422   -2.870390    1.605831
  37 H     1.0000    0     1.008  -10.249906   -1.823849   -1.537366
  38 H     1.0000    0     1.008   -8.317975    2.199422   -0.328531
  39 H     1.0000    0     1.008  -10.882952    4.044589    3.173856
  40 H     1.0000    0     1.008  -15.064698    2.309781    3.256842
  41 H     1.0000    0     1.008  -14.011533   -0.533652    1.609285
  42 H     1.0000    0     1.008    1.435043    1.995132    2.642427
  43 H     1.0000    0     1.008   -0.142061    4.380335    4.287198
  44 H     1.0000    0     1.008   -1.110492    6.672204    0.490926
  45 H     1.0000    0     1.008    2.113591    6.030229    0.663630
  46 H     1.0000    0     1.008   -1.738435    3.607102   -2.839260
  47 H     1.0000    0     1.008    0.776115    5.568982   -3.626081
  48 H     1.0000    0     1.008    1.726810    1.249986   -4.784299
  49 H     1.0000    0     1.008    1.046887    0.158245   -1.745667
  50 H     1.0000    0     1.008    4.851261   -1.574953   -2.671962
  51 H     1.0000    0     1.008    7.821528    1.174463    1.374773
  52 H     1.0000    0     1.008    3.503080   -1.838793    1.766773
  53 H     1.0000    0     1.008    7.735998   -4.391899   -0.027125
  54 H     1.0000    0     1.008   11.450219   -4.586614    2.851445
  55 H     1.0000    0     1.008   10.755373   -1.529444    3.909999
  56 H     1.0000    0     1.008    6.828636   -3.277751    5.036262
  57 H     1.0000    0     1.008    8.988318   -3.431826   -4.241983
  58 H     1.0000    0     1.008   11.640447   -0.716617   -6.546811
  59 H     1.0000    0     1.008    9.168214    2.158087   -3.060472
  60 H     1.0000    0     1.008    6.478963    2.286902   -6.397087

--------------------------------
INTERNAL COORDINATES (ANGSTROEM)
--------------------------------
 O      0   0   0     0.000000000000     0.00000000     0.00000000
 C      1   0   0     1.190627652932     0.00000000     0.00000000
 C      2   1   0     1.513140754455   126.91857570     0.00000000
 H      3   2   1     1.083901762826   107.54791130   296.40419338
 C      3   2   1     1.535667982836   104.48089029   176.96275947
 C      5   3   2     1.559977735523   106.65837672   241.21463495
 C      6   5   3     1.509256527026   115.09121659    93.58271741
 C      7   6   5     1.318818040303   124.42906359   117.62320107
 C      6   5   3     1.543172726723   101.41873605   332.96654872
 C      9   6   5     1.535122656917   104.86753339    41.05453540
 C     10   9   6     1.506341317523   117.51781907   196.33233237
 C     11  10   9     1.318890374676   126.65068144   354.03477573
 H      5   3   2     1.082736161859   112.42884242   121.89934983
 N      2   1   3     1.383072298557   124.38876245   180.75550395
 C     14   2   1     1.465525183157   122.28100492     7.90477052
 C     15  14   2     1.529509828887   115.53667243   285.64274356
 C     16  15  14     1.532244086896   117.17312002   304.45529736
 C     17  16  15     1.519895401045   115.94370156   311.25439313
 O     18  17  16     1.407789669548   110.16766787   305.92472386
 C     19  18  17     1.402777170531   115.58282273   169.30426827
 C     20  19  18     1.526185581792   112.13940507   243.83605286
 O     21  20  19     1.403604130806   113.88761731    59.52002951
 C     21  20  19     1.536598545561   109.20661327   184.94376683
 C     23  21  20     1.524943961845   113.41149058   175.44905222
 O     24  23  21     1.395217579496   112.49946486    71.66729439
 O     23  21  20     1.405793095845   109.22931993    56.68589593
 C     26  23  21     1.384737132131   114.68337131   297.39925537
 O     27  26  23     1.377451762868   106.52374408   183.03397291
 C     27  26  23     1.520627913851   109.22288243    62.48013354
 O     29  27  26     1.402024076021   107.43431974   180.71864829
 C     14   2   1     1.375946381724   113.16700444   179.20531768
 O     31  14   2     1.196257676145   125.27400323   184.96152470
 H      6   5   3     1.082571818693   109.54214029   215.40148083
 H      7   6   5     1.078819791454   116.97498026   295.83978069
 H      8   7   6     1.075280118448   121.55094505   178.30048855
 H      8   7   6     1.076294342012   121.91179305   358.36610389
 H      9   6   5     1.086520293752   109.09882760   283.75681516
 H      9   6   5     1.083781519005   112.43811906   164.23635726
 H     10   9   6     1.088033454106   108.60437582    75.27093448
 H     11  10   9     1.078239418509   114.21265942   174.91973028
 H     12  11  10     1.075157113198   120.90907786   180.58884562
 H     12  11  10     1.075388786423   122.85107278     0.20909905
 H     15  14   2     1.076195269179   106.74330756   161.87093029
 H     15  14   2     1.082298539777   106.99372277    46.50985855
 H     16  15  14     1.083828320653   109.19651386    68.25749334
 H     16  15  14     1.084945053382   105.77429181   182.95349297
 H     17  16  15     1.087355686594   110.14548032    73.02372169
 H     17  16  15     1.086379096652   107.82778775   188.50309624
 H     18  17  16     1.088393684668   109.49689248   185.21770792
 H     18  17  16     1.080613412369   110.38744162    67.39908898
 H     20  19  18     1.088912734312   109.56057395     5.03753442
 H     21  20  19     1.083657967825   108.33955926   302.43296935
 H     22  21  20     0.951593430559   113.35891482    37.19619223
 H     23  21  20     1.090457471577   109.32859534   296.06157055
 H     24  23  21     1.080746247347   108.19906845   190.00314618
 H     24  23  21     1.088369945306   109.29775860   306.96893111
 H     25  24  23     0.949362189575   108.50313913   303.67713783
 H     27  26  23     1.091724504673   109.77407967   302.59248652
 H     28  27  26     0.949893015837   108.01040210   191.77371968
 H     29  27  26     1.086238928159   107.55350271    61.78392827
 H     30  29  27     0.948385913194   108.69929310   187.87156190

---------------------------
INTERNAL COORDINATES (A.U.)
---------------------------
 O      0   0   0     0.000000000000     0.00000000     0.00000000
 C      1   0   0     2.249960191515     0.00000000     0.00000000
 C      2   1   0     2.859421627995   126.91857570     0.00000000
 H      3   2   1     2.048277487815   107.54791130   296.40419338
 C      3   2   1     2.901991920191   104.48089029   176.96275947
 C      5   3   2     2.947930695154   106.65837672   241.21463495
 C      6   5   3     2.852081501912   115.09121659    93.58271741
 C      7   6   5     2.492204916647   124.42906359   117.62320107
 C      6   5   3     2.916173830843   101.41873605   332.96654872
 C      9   6   5     2.900961403551   104.86753339    41.05453540
 C     10   9   6     2.846572554328   117.51781907   196.33233237
 C     11  10   9     2.492341608802   126.65068144   354.03477573
 H      5   3   2     2.046074821206   112.42884242   121.89934983
 N      2   1   3     2.613627867686   124.38876245   180.75550395
 C     14   2   1     2.769441238532   122.28100492     7.90477052
 C     15  14   2     2.890354695737   115.53667243   285.64274356
 C     16  15  14     2.895521694554   117.17312002   304.45529736
 C     17  16  15     2.872186060182   115.94370156   311.25439313
 O     18  17  16     2.660336929609   110.16766787   305.92472386
 C     19  18  17     2.650864679221   115.58282273   169.30426827
 C     20  19  18     2.884072779127   112.13940507   243.83605286
 O     21  20  19     2.652427407664   113.88761731    59.52002951
 C     21  20  19     2.903750428893   109.20661327   184.94376683
 C     23  21  20     2.881726457464   113.41149058   175.44905222
 O     24  23  21     2.636579122480   112.49946486    71.66729439
 O     23  21  20     2.656563952104   109.22931993    56.68589593
 C     26  23  21     2.616773947200   114.68337131   297.39925537
 O     27  26  23     2.603006594508   106.52374408   183.03397291
 C     27  26  23     2.873570308774   109.22288243    62.48013354
 O     29  27  26     2.649441536843   107.43431974   180.71864829
 C     14   2   1     2.600161836419   113.16700444   179.20531768
 O     31  14   2     2.260599393515   125.27400323   184.96152470
 H      6   5   3     2.045764257630   109.54214029   215.40148083
 H      7   6   5     2.038673953702   116.97498026   295.83978069
 H      8   7   6     2.031984941117   121.55094505   178.30048855
 H      8   7   6     2.033901545892   121.91179305   358.36610389
 H      9   6   5     2.053225794140   109.09882760   283.75681516
 H      9   6   5     2.048050259924   112.43811906   164.23635726
 H     10   9   6     2.056085252804   108.60437582    75.27093448
 H     11  10   9     2.037577207781   114.21265942   174.91973028
 H     12  11  10     2.031752494881   120.90907786   180.58884562
 H     12  11  10     2.032190293830   122.85107278     0.20909905
 H     15  14   2     2.033714325370   106.74330756   161.87093029
 H     15  14   2     2.045247835321   106.99372277    46.50985855
 H     16  15  14     2.048138702222   109.19651386    68.25749334
 H     16  15  14     2.050249021244   105.77429181   182.95349297
 H     17  16  15     2.054804457824   110.14548032    73.02372169
 H     17  16  15     2.052958970289   107.82778775   188.50309624
 H     18  17  16     2.056765989912   109.49689248   185.21770792
 H     18  17  16     2.042063406020   110.38744162    67.39908898
 H     20  19  18     2.057746851589   109.56057395     5.03753442
 H     21  20  19     2.047816782031   108.33955926   302.43296935
 H     22  21  20     1.798250974594   113.35891482    37.19619223
 H     23  21  20     2.060665981969   109.32859534   296.06157055
 H     24  23  21     2.042314427749   108.19906845   190.00314618
 H     24  23  21     2.056721129019   109.29775860   306.96893111
 H     25  24  23     1.794034540197   108.50313913   303.67713783
 H     27  26  23     2.063060327523   109.77407967   302.59248652
 H     28  27  26     1.795037656457   108.01040210   191.77371968
 H     29  27  26     2.052694090225   107.55350271    61.78392827
 H     30  29  27     1.792189645205   108.69929310   187.87156190

------------------------------------------------------------------------------
                   ___                                                        
                  /   \      - P O W E R E D   B Y -                         
                 /     \                                                     
                 |  |  |   _    _      __       _____    __    __             
                 |  |  |  | |  | |    /  \     |  _  \  |  |  /  |          
                  \  \/   | |  | |   /    \    | | | |  |  | /  /          
                 / \  \   | |__| |  /  /\  \   | |_| |  |  |/  /          
                |  |  |   |  __  | /  /__\  \  |    /   |      \           
                |  |  |   | |  | | |   __   |  |    \   |  |\   \          
                \     /   | |  | | |  |  |  |  | |\  \  |  | \   \       
                 \___/    |_|  |_| |__|  |__|  |_| \__\ |__|  \__/        
                                                                              
                      - O R C A' S   B I G   F R I E N D -                    
                                      &                                       
                       - I N T E G R A L  F E E D E R -                       
                                                                              
 v1 FN, 2020, v2 2021, v3 2022-2024                                           
------------------------------------------------------------------------------


----------------------
SHARK INTEGRAL PACKAGE
----------------------

Number of atoms                             ...     61
Number of basis functions                   ...    482
Number of shells                            ...    242
Maximum angular momentum                    ...      2
Integral batch strategy                     ... SHARK/LIBINT Hybrid
RI-J (if used) integral strategy            ... SPLIT-RIJ (Revised 2003 algorithm where possible)
Printlevel                                  ...      1
Contraction scheme used                     ... SEGMENTED contraction
Prescreening option                         ... SCHWARTZ
   Thresh                                   ... 2.500e-11
   Tcut                                     ... 2.500e-12
   Tpresel                                  ... 2.500e-12 
Coulomb Range Separation                    ... NOT USED
Exchange Range Separation                   ... NOT USED
Multipole approximations                    ... NOT USED
Finite Nucleus Model                        ... NOT USED
CABS basis                                  ... NOT available
Auxiliary Coulomb fitting basis             ... NOT available
Auxiliary J/K fitting basis                 ... NOT available
Auxiliary Correlation fitting basis         ... NOT available
Auxiliary 'external' fitting basis          ... NOT available

Checking pre-screening integrals            ... done (  0.0 sec) Dimension = 242
Check shell pair data                       ... done (  0.0 sec)
Shell pair information
Shell pair cut-off parameter TPreSel        ...   2.5e-12
Total number of shell pairs                 ...     29403
Shell pairs after pre-screening             ...     18263
Total number of primitive shell pairs       ...    165748
Primitive shell pairs kept                  ...     54347
          la=0 lb=0:   6946 shell pairs
          la=1 lb=0:   6126 shell pairs
          la=1 lb=1:   1358 shell pairs
          la=2 lb=0:   2464 shell pairs
          la=2 lb=1:   1136 shell pairs
          la=2 lb=2:    233 shell pairs

Calculating one electron integrals          ... done (  0.2 sec)
Calculating Nuclear repulsion               ... done (  0.0 sec) ENN=   3220.666351312489 Eh

Diagonalization of the overlap matrix:
Smallest eigenvalue                        ... 1.173e-03
Time for diagonalization                   ...    0.022 sec
Threshold for overlap eigenvalues          ... 1.000e-07
Number of eigenvalues below threshold      ... 0
Time for construction of square roots      ...    0.011 sec
Total time needed                          ...    0.034 sec

-------------------
DFT GRID GENERATION
-------------------

General Integration Accuracy     IntAcc      ... 4.388
Radial Grid Type                 RadialGrid  ... OptM3 with GC (2021)
Angular Grid (max. ang.)         AngularGrid ... 4 (Lebedev-302)
Angular grid pruning method      GridPruning ... 4 (adaptive)
Weight generation scheme         WeightScheme... mBecke (2022)
Basis function cutoff            BFCut       ... 1.0000e-11
Integration weight cutoff        WCut        ... 1.0000e-14
Partially contracted basis set               ... off
Rotationally invariant grid construction     ... off
Angular grids for H and He will be reduced by one unit

Total number of grid points                  ...   276063
Total number of batches                      ...     4344
Average number of points per batch           ...       63
Average number of grid points per atom       ...     4526
Initializing property integral containers    ... done (  0.0 sec)

SHARK setup successfully completed in   4.6 seconds

Maximum memory used throughout the entire STARTUP-calculation: 121.6 MB
Occupation numbers will be reassigned to an Aufbau configuration
             **** ENERGY FILE WAS UPDATED (monomer_hf_opt.en.tmp) ****
Finished Guess after   0.2 sec
Maximum memory used throughout the entire GUESS-calculation: 46.2 MB
----------------------------------------D-I-I-S--------------------------------------------
Iteration    Energy (Eh)           Delta-E    RMSDP     MaxDP     DIISErr   Damp  Time(sec)
-------------------------------------------------------------------------------------------
               ***  Starting incremental Fock matrix formation  ***
                              *** Initializing SOSCF ***
---------------------------------------S-O-S-C-F--------------------------------------
Iteration    Energy (Eh)           Delta-E    RMSDP     MaxDP     MaxGrad    Time(sec)
--------------------------------------------------------------------------------------
    1    -1466.5862134203480309     0.00e+00  2.15e-05  1.03e-03  5.04e-05    51.1
               *** Restarting incremental Fock matrix formation ***
    2    -1466.5862576202061973    -4.42e-05  1.18e-05  4.26e-04  1.25e-04    50.9
    3    -1466.5862660017419330    -8.38e-06  7.44e-06  2.58e-04  6.06e-05    32.8
    4    -1466.5862672912144262    -1.29e-06  9.53e-07  5.71e-05  1.26e-05    31.2
    5    -1466.5862673184456071    -2.72e-08  6.45e-07  4.40e-05  5.18e-06    25.2
    6    -1466.5862673271030872    -8.66e-09  1.64e-07  6.21e-06  1.29e-06    23.8
                 **** Energy Check signals convergence ****

               *****************************************************
               *                     SUCCESS                       *
               *           SCF CONVERGED AFTER   6 CYCLES          *
               *****************************************************

             **** ENERGY FILE WAS UPDATED (monomer_hf_opt.en.tmp) ****

----------------
TOTAL SCF ENERGY
----------------

Total Energy       :      -1466.58626732710309 Eh          -39907.84121 eV

Components:
Nuclear Repulsion  :       3220.66635131248950 Eh           87638.78689 eV
Electronic Energy  :      -4687.25261863959258 Eh         -127546.62810 eV
One Electron Energy:      -8416.09020128687735 Eh         -229013.45720 eV
Two Electron Energy:       3728.83758264728476 Eh          101466.82910 eV

Virial components:
Potential Energy   :      -2933.26409105987659 Eh          -79818.17380 eV
Kinetic Energy     :       1466.67782373277373 Eh           39910.33259 eV
Virial Ratio       :          1.99993757565282

---------------
SCF CONVERGENCE
---------------

  Last Energy change         ...    8.6575e-09  Tolerance :   1.0000e-08
  Last MAX-Density change    ...    6.2140e-06  Tolerance :   1.0000e-07
  Last RMS-Density change    ...    1.6394e-07  Tolerance :   5.0000e-09
  Last DIIS Error            ...    2.0408e-03  Tolerance :   5.0000e-07
  Last Orbital Gradient      ...    1.2895e-06  Tolerance :   1.0000e-05
  Last Orbital Rotation      ...    1.5926e-06  Tolerance :   1.0000e-05


Total SCF time: 0 days 0 hours 3 min 35 sec 
Finished LeanSCF after 215.2 sec

Maximum memory used throughout the entire LEANSCF-calculation: 48.9 MB

-------------------------   --------------------
FINAL SINGLE POINT ENERGY     -1466.586267327103
-------------------------   --------------------

------------------------------------------------------------------------------
                         ORCA SCF GRADIENT CALCULATION
------------------------------------------------------------------------------

Nuc. rep. gradient        (SHARK) ... done (  0.0 sec)
HCore & Overlap gradient  (SHARK) ... done (  3.0 sec)
Two-electron gradient     (SHARK) ... done (179.8 sec)

------------------
CARTESIAN GRADIENT
------------------

   1   O   :    0.000030048   -0.000028368    0.000023923
   2   C   :   -0.000021750    0.000090502   -0.000060286
   3   C   :    0.000073861   -0.000001196    0.000080593
   4   H   :   -0.000058268   -0.000009087   -0.000028412
   5   C   :   -0.000049682   -0.000048740    0.000024145
   6   C   :   -0.000030225   -0.000013780    0.000007561
   7   C   :    0.000031816   -0.000040212    0.000044076
   8   C   :    0.000036314    0.000019207   -0.000073991
   9   C   :   -0.000003025    0.000008457   -0.000042382
  10   C   :   -0.000048662    0.000012035    0.000016960
  11   C   :    0.000044874    0.000024915   -0.000002907
  12   C   :   -0.000022581   -0.000009575    0.000001613
  13   H   :    0.000006398    0.000004623   -0.000000292
  14   N   :    0.000066372   -0.000151844    0.000071224
  15   C   :   -0.000041976    0.000140194   -0.000043338
  16   C   :    0.000029287   -0.000159481   -0.000057549
  17   C   :    0.000087898    0.000054571   -0.000000670
  18   C   :   -0.000036795    0.000028822   -0.000139859
  19   O   :    0.000005077   -0.000017049    0.000128445
  20   C   :   -0.000021595   -0.000011544   -0.000086397
  21   C   :   -0.000079503    0.000101311    0.000048781
  22   O   :    0.000075484   -0.000088850   -0.000055238
  23   C   :    0.000018202   -0.000009738   -0.000027298
  24   C   :   -0.000019964    0.000023728   -0.000027828
  25   O   :   -0.000016606   -0.000068364    0.000000898
  26   O   :   -0.000013644   -0.000000365   -0.000048161
  27   C   :    0.000047515   -0.000030826    0.000065933
  28   O   :   -0.000004288    0.000029040    0.000039528
  29   C   :    0.000029590   -0.000018501    0.000041292
  30   O   :   -0.000007027   -0.000027862   -0.000015753
  31   C   :    0.000050217    0.000086750   -0.000108103
  32   O   :   -0.000015437   -0.000027694    0.000050981
  33   H   :    0.000013360   -0.000003310   -0.000015376
  34   H   :   -0.000008218    0.000008607    0.000010993
  35   H   :   -0.000010563    0.000009598    0.000019840
  36   H   :   -0.000023951   -0.000009231    0.000014488
  37   H   :    0.000006635    0.000012214    0.000025794
  38   H   :    0.000009484    0.000002841   -0.000000782
  39   H   :   -0.000022973   -0.000011777    0.000000342
  40   H   :   -0.000008907    0.000001756    0.000002368
  41   H   :    0.000001067    0.000009055    0.000002347
  42   H   :    0.000015370   -0.000011681   -0.000007159
  43   H   :    0.000020962    0.000005203    0.000010544
  44   H   :   -0.000045541   -0.000008577   -0.000013416
  45   H   :   -0.000008854    0.000020314    0.000021167
  46   H   :   -0.000003624    0.000011632    0.000008099
  47   H   :    0.000003311   -0.000010855   -0.000012950
  48   H   :   -0.000037783    0.000023281    0.000013689
  49   H   :    0.000001651   -0.000007106    0.000021520
  50   H   :   -0.000015605   -0.000018215    0.000055278
  51   H   :   -0.000006886   -0.000009032    0.000034846
  52   H   :    0.000009964   -0.000006026    0.000001495
  53   H   :   -0.000031737    0.000049985    0.000011784
  54   H   :    0.000012501   -0.000011929    0.000019967
  55   H   :    0.000017406    0.000018562    0.000006223
  56   H   :    0.000003532   -0.000007372    0.000020254
  57   H   :    0.000000556    0.000042501    0.000006739
  58   H   :   -0.000015553    0.000008174   -0.000021658
  59   H   :   -0.000005349   -0.000014041   -0.000047104
  60   H   :   -0.000007375    0.000005218   -0.000008906
  61   H   :   -0.000004804    0.000039134   -0.000007912

Difference to translation invariance:
           :   -0.0000000000   -0.0000000000   -0.0000000000

Difference to rotation invariance:
           :   -0.0000020882   -0.0000041465    0.0000001705

Norm of the Cartesian gradient     ...    0.0005603978
RMS gradient                       ...    0.0000414258
MAX gradient                       ...    0.0001594811

-------
TIMINGS
-------

Total SCF gradient time     ....      182.761 sec

Densities                   ....       0.005 sec  (  0.0%)
One electron gradient       ....       2.957 sec  (  1.6%)
Two electron gradient       ....     179.799 sec  ( 98.4%)

Maximum memory used throughout the entire SCFGRAD-calculation: 105.7 MB
------------------------------------------------------------------------------
                         ORCA GEOMETRY RELAXATION STEP
------------------------------------------------------------------------------

Reading the OPT-File                    .... done
Getting information on internals        .... done
Copying old internal coords+grads       .... done
Making the new internal coordinates     .... (2022 redundants) done
Validating the new internal coordinates .... (2022 redundants) done
Calculating the B-matrix                .... done
Calculating the G,G- and P matrices     .... done
Transforming gradient to internals      .... done
Projecting the internal gradient        .... done
Number of atoms                         ....  61
Number of internal coordinates          .... 327
Current Energy                          .... -1466.586267327 Eh
Current gradient norm                   ....     0.000560398 Eh/bohr
Maximum allowed component of the step   ....  0.300
Current trust radius                    ....  0.700
Updating the Hessian (BFGS)             .... done
Forming the augmented Hessian           .... done
Diagonalizing the augmented Hessian     .... done
Last element of RFO vector              ....  0.999571939
Lowest eigenvalues of augmented Hessian:
 -0.000002366  0.000834027  0.002112619  0.006980795  0.012195846
Length of the computed step             ....  0.029268977
The final length of the internal step   ....  0.029268977
Converting the step to Cartesian space:
 Initial RMS(Int)=    0.0016185781
Transforming coordinates:
 Iter   0:  RMS(Cart)=    0.0046303452 RMS(Int)=    0.0016178657
done
Storing new coordinates                 .... done
The predicted energy change is          ....    -0.000001184
Previously predicted energy change      ....    -0.000001499
Actually observed energy change         ....    -0.000002174
Ratio of predicted to observed change   ....     1.450713432
New trust radius                        ....     0.700000000

                                .--------------------.
          ----------------------|Geometry convergence|-------------------------
          Item                value                   Tolerance       Converged
          ---------------------------------------------------------------------
          Energy change      -0.0000021740            0.0000050000      YES
          RMS gradient        0.0000222865            0.0001000000      YES
          MAX gradient        0.0001231210            0.0003000000      YES
          RMS step            0.0016185781            0.0020000000      YES
          MAX step            0.0144617192            0.0040000000      NO
          ........................................................
          Max(Bonds)      0.0077      Max(Angles)    0.03
          Max(Dihed)        0.43      Max(Improp)    0.00
          ---------------------------------------------------------------------

The optimization has not yet converged - more geometry cycles are needed


    ---------------------------------------------------------------------------
                         Redundant Internal Coordinates
                            (Angstroem and degrees)

        Definition                    Value    dE/dq     Step     New-Value
    ----------------------------------------------------------------------------
     1. B(C   1,O   0)                1.1906 -0.000029  0.0000    1.1907   
     2. B(C   2,C   1)                1.5131  0.000015 -0.0000    1.5131   
     3. B(H   3,C   2)                1.0839 -0.000006  0.0000    1.0839   
     4. B(C   4,C   2)                1.5357  0.000006 -0.0001    1.5356   
     5. B(C   5,C   4)                1.5600 -0.000010 -0.0000    1.5600   
     6. B(C   6,C   5)                1.5093 -0.000002 -0.0000    1.5092   
     7. B(C   7,C   6)                1.3188  0.000014  0.0000    1.3188   
     8. B(C   8,C   5)                1.5432  0.000019 -0.0001    1.5431   
     9. B(C   9,C   8)                1.5351  0.000009  0.0000    1.5352   
    10. B(C   9,C   2)                1.5510  0.000013 -0.0000    1.5510   
    11. B(C  10,C   9)                1.5063 -0.000019  0.0000    1.5064   
    12. B(C  11,C  10)                1.3189  0.000010 -0.0000    1.3189   
    13. B(H  12,C   4)                1.0827 -0.000004 -0.0000    1.0827   
    14. B(N  13,C   1)                1.3831  0.000021  0.0000    1.3831   
    15. B(C  14,N  13)                1.4655 -0.000021 -0.0000    1.4655   
    16. B(C  15,C  14)                1.5295 -0.000033  0.0001    1.5296   
    17. B(C  16,C  15)                1.5322 -0.000035  0.0000    1.5323   
    18. B(C  17,C  16)                1.5199 -0.000035 -0.0000    1.5199   
    19. B(O  18,C  17)                1.4078  0.000012 -0.0000    1.4078   
    20. B(C  19,O  18)                1.4028 -0.000021  0.0000    1.4028   
    21. B(C  20,C  19)                1.5262 -0.000009  0.0000    1.5262   
    22. B(O  21,C  20)                1.4036 -0.000060  0.0001    1.4037   
    23. B(C  22,C  20)                1.5366  0.000036 -0.0000    1.5366   
    24. B(C  23,C  22)                1.5249  0.000006 -0.0000    1.5249   
    25. B(O  24,C  23)                1.3952  0.000029  0.0000    1.3952   
    26. B(O  25,C  22)                1.4058  0.000007 -0.0000    1.4058   
    27. B(C  26,O  25)                1.3847 -0.000045  0.0001    1.3848   
    28. B(O  27,C  26)                1.3775 -0.000000  0.0000    1.3775   
    29. B(C  28,C  26)                1.5206  0.000005 -0.0000    1.5206   
    30. B(C  28,C  19)                1.5209  0.000007 -0.0001    1.5209   
    31. B(O  29,C  28)                1.4020  0.000027 -0.0001    1.4019   
    32. B(C  30,N  13)                1.3759 -0.000030  0.0000    1.3760   
    33. B(C  30,C   4)                1.5148  0.000040 -0.0001    1.5147   
    34. B(O  31,C  30)                1.1963 -0.000007  0.0000    1.1963   
    35. B(H  32,C   5)                1.0826  0.000003  0.0000    1.0826   
    36. B(H  33,C   6)                1.0788  0.000007  0.0000    1.0788   
    37. B(H  34,C   7)                1.0753 -0.000013  0.0000    1.0753   
    38. B(H  35,C   7)                1.0763  0.000009 -0.0000    1.0763   
    39. B(H  36,C   8)                1.0865  0.000007 -0.0000    1.0865   
    40. B(H  37,C   8)                1.0838 -0.000004  0.0000    1.0838   
    41. B(H  38,C   9)                1.0880 -0.000014  0.0000    1.0880   
    42. B(H  39,C  10)                1.0782  0.000001  0.0000    1.0783   
    43. B(H  40,C  11)                1.0752  0.000005 -0.0000    1.0752   
    44. B(H  41,C  11)                1.0754  0.000010 -0.0000    1.0754   
    45. B(H  42,C  14)                1.0762  0.000013 -0.0000    1.0762   
    46. B(H  43,C  14)                1.0823 -0.000015  0.0000    1.0823   
    47. B(H  44,C  15)                1.0838  0.000022 -0.0000    1.0838   
    48. B(H  45,C  15)                1.0849  0.000003  0.0000    1.0850   
    49. B(H  46,C  16)                1.0874  0.000003 -0.0000    1.0873   
    50. B(H  47,C  16)                1.0864 -0.000003  0.0000    1.0864   
    51. B(H  48,C  17)                1.0884 -0.000015  0.0001    1.0885   
    52. B(H  48,H  34)                3.4610  0.000013 -0.0077    3.4534   
    53. B(H  49,C  17)                1.0806  0.000048 -0.0001    1.0805   
    54. B(H  50,C  19)                1.0889 -0.000001  0.0000    1.0889   
    55. B(H  51,C  20)                1.0837  0.000000 -0.0000    1.0837   
    56. B(H  52,O  21)                0.9516 -0.000009  0.0000    0.9516   
    57. B(H  52,O  31)                2.2223 -0.000005  0.0038    2.2261   
    58. B(H  53,C  22)                1.0905 -0.000002  0.0000    1.0905   
    59. B(H  54,C  23)                1.0807 -0.000000  0.0000    1.0808   
    60. B(H  55,C  23)                1.0884  0.000003 -0.0000    1.0884   
    61. B(H  56,O  24)                0.9494  0.000019 -0.0000    0.9494   
    62. B(H  56,O  21)                2.1167 -0.000010 -0.0003    2.1164   
    63. B(H  57,C  26)                1.0917  0.000008 -0.0000    1.0917   
    64. B(H  58,O  27)                0.9499  0.000039 -0.0000    0.9499   
    65. B(H  58,O  29)                2.3756 -0.000002  0.0007    2.3762   
    66. B(H  59,C  28)                1.0862 -0.000002  0.0000    1.0863   
    67. B(H  60,O  29)                0.9484  0.000036  0.0000    0.9484   
    68. A(O   0,C   1,N  13)          124.39 -0.000019    0.00    124.39   
    69. A(O   0,C   1,C   2)          126.92  0.000025   -0.00    126.92   
    70. A(C   2,C   1,N  13)          108.69 -0.000006   -0.00    108.69   
    71. A(C   1,C   2,H   3)          107.55  0.000046   -0.03    107.52   
    72. A(H   3,C   2,C   4)          112.23  0.000002   -0.01    112.22   
    73. A(H   3,C   2,C   9)          110.39 -0.000025    0.02    110.41   
    74. A(C   1,C   2,C   9)          115.07 -0.000023    0.02    115.09   
    75. A(C   4,C   2,C   9)          107.07  0.000009    0.01    107.08   
    76. A(C   1,C   2,C   4)          104.48 -0.000009   -0.01    104.47   
    77. A(H  12,C   4,C  30)          107.29  0.000016    0.02    107.31   
    78. A(C   2,C   4,H  12)          112.43 -0.000002    0.00    112.43   
    79. A(C   5,C   4,C  30)          116.92 -0.000040   -0.00    116.92   
    80. A(C   2,C   4,C   5)          106.66 -0.000001   -0.01    106.65   
    81. A(C   2,C   4,C  30)          104.69  0.000011    0.00    104.70   
    82. A(C   5,C   4,H  12)          108.92  0.000015   -0.01    108.90   
    83. A(C   6,C   5,C   8)          111.60  0.000019   -0.00    111.60   
    84. A(C   4,C   5,C   8)          101.42  0.000004   -0.01    101.41   
    85. A(C   6,C   5,H  32)          107.95  0.000007    0.01    107.95   
    86. A(C   4,C   5,H  32)          109.54  0.000014   -0.01    109.53   
    87. A(C   4,C   5,C   6)          115.09 -0.000059    0.01    115.10   
    88. A(C   8,C   5,H  32)          111.18  0.000016   -0.00    111.17   
    89. A(C   5,C   6,C   7)          124.43  0.000084    0.01    124.44   
    90. A(C   5,C   6,H  33)          116.97 -0.000057    0.00    116.98   
    91. A(C   7,C   6,H  33)          118.57 -0.000027   -0.01    118.56   
    92. A(C   6,C   7,H  35)          121.91 -0.000016    0.01    121.92   
    93. A(C   6,C   7,H  34)          121.55 -0.000014   -0.02    121.53   
    94. A(H  34,C   7,H  35)          116.54  0.000030    0.01    116.55   
    95. A(C   9,C   8,H  36)          109.57  0.000002    0.00    109.57   
    96. A(C   5,C   8,H  36)          109.10 -0.000012   -0.01    109.09   
    97. A(H  36,C   8,H  37)          107.79  0.000002   -0.00    107.79   
    98. A(C   5,C   8,C   9)          104.87  0.000005    0.00    104.87   
    99. A(C   5,C   8,H  37)          112.44  0.000003    0.00    112.44   
   100. A(C   9,C   8,H  37)          113.02 -0.000001   -0.00    113.01   
   101. A(C   2,C   9,C  10)          112.97  0.000004   -0.00    112.97   
   102. A(C  10,C   9,H  38)          106.63 -0.000019   -0.00    106.63   
   103. A(C   2,C   9,C   8)          102.64 -0.000006    0.01    102.65   
   104. A(C   8,C   9,H  38)          108.60 -0.000013    0.02    108.62   
   105. A(C   2,C   9,H  38)          108.14  0.000019    0.00    108.14   
   106. A(C   8,C   9,C  10)          117.52  0.000016   -0.01    117.51   
   107. A(C   9,C  10,H  39)          114.21  0.000027   -0.01    114.21   
   108. A(C  11,C  10,H  39)          119.13  0.000009   -0.01    119.13   
   109. A(C   9,C  10,C  11)          126.65 -0.000036    0.01    126.66   
   110. A(H  40,C  11,H  41)          116.24  0.000018    0.00    116.24   
   111. A(C  10,C  11,H  41)          122.85 -0.000019   -0.00    122.85   
   112. A(C  10,C  11,H  40)          120.91  0.000002   -0.00    120.91   
   113. A(C   1,N  13,C  30)          113.17  0.000022   -0.00    113.17   
   114. A(C   1,N  13,C  14)          122.28 -0.000111    0.02    122.30   
   115. A(C  14,N  13,C  30)          123.93  0.000091   -0.02    123.92   
   116. A(N  13,C  14,C  15)          115.54  0.000054   -0.00    115.53   
   117. A(H  42,C  14,H  43)          107.94  0.000015   -0.00    107.94   
   118. A(C  15,C  14,H  43)          108.46 -0.000004    0.00    108.47   
   119. A(N  13,C  14,H  43)          106.99 -0.000039    0.02    107.01   
   120. A(C  15,C  14,H  42)          110.86 -0.000022   -0.00    110.86   
   121. A(N  13,C  14,H  42)          106.74 -0.000006   -0.01    106.73   
   122. A(H  44,C  15,H  45)          106.88  0.000001    0.00    106.88   
   123. A(C  14,C  15,C  16)          117.17  0.000123   -0.03    117.14   
   124. A(C  16,C  15,H  45)          108.86 -0.000006    0.01    108.87   
   125. A(C  14,C  15,H  45)          105.77 -0.000051    0.00    105.78   
   126. A(C  16,C  15,H  44)          108.50 -0.000037    0.01    108.51   
   127. A(C  14,C  15,H  44)          109.20 -0.000038    0.01    109.21   
   128. A(C  17,C  16,H  47)          109.22  0.000065   -0.02    109.19   
   129. A(H  46,C  16,H  47)          106.20 -0.000018    0.01    106.21   
   130. A(C  15,C  16,H  47)          107.83 -0.000035    0.01    107.84   
   131. A(C  17,C  16,H  46)          107.09 -0.000031    0.02    107.10   
   132. A(C  15,C  16,H  46)          110.15  0.000022   -0.00    110.14   
   133. A(C  15,C  16,C  17)          115.94 -0.000004   -0.01    115.94   
   134. A(C  16,C  17,O  18)          110.17 -0.000024    0.00    110.17   
   135. A(O  18,C  17,H  49)          109.83 -0.000025    0.02    109.86   
   136. A(C  16,C  17,H  49)          110.39 -0.000004    0.01    110.40   
   137. A(O  18,C  17,H  48)          109.68  0.000028   -0.02    109.66   
   138. A(C  16,C  17,H  48)          109.50  0.000013   -0.00    109.50   
   139. A(H  48,C  17,H  49)          107.22  0.000013   -0.02    107.21   
   140. A(C  17,O  18,C  19)          115.58 -0.000011   -0.00    115.58   
   141. A(O  18,C  19,C  20)          112.14 -0.000002    0.03    112.17   
   142. A(C  28,C  19,H  50)          108.15  0.000015   -0.01    108.14   
   143. A(C  20,C  19,H  50)          109.03 -0.000015    0.01    109.04   
   144. A(O  18,C  19,H  50)          109.56  0.000007   -0.01    109.56   
   145. A(C  20,C  19,C  28)          108.87 -0.000005    0.00    108.88   
   146. A(O  18,C  19,C  28)          109.00  0.000001   -0.03    108.98   
   147. A(O  21,C  20,C  22)          111.55  0.000000    0.02    111.56   
   148. A(C  19,C  20,C  22)          109.21 -0.000013    0.01    109.21   
   149. A(C  19,C  20,O  21)          113.89  0.000002   -0.00    113.88   
   150. A(O  21,C  20,H  51)          105.53  0.000009   -0.02    105.52   
   151. A(C  19,C  20,H  51)          108.34  0.000022   -0.01    108.33   
   152. A(C  22,C  20,H  51)          108.07 -0.000020    0.00    108.08   
   153. A(C  20,O  21,H  52)          113.36  0.000044   -0.00    113.35   
   154. A(O  25,C  22,H  53)          110.17  0.000002    0.00    110.18   
   155. A(C  23,C  22,H  53)          108.03 -0.000027    0.01    108.03   
   156. A(C  20,C  22,H  53)          109.33  0.000021   -0.00    109.33   
   157. A(C  23,C  22,O  25)          106.62  0.000009   -0.01    106.61   
   158. A(C  20,C  22,O  25)          109.23 -0.000001   -0.00    109.23   
   159. A(C  20,C  22,C  23)          113.41 -0.000005    0.00    113.42   
   160. A(H  54,C  23,H  55)          107.66 -0.000008    0.00    107.66   
   161. A(C  22,C  23,H  55)          109.30  0.000032   -0.01    109.29   
   162. A(O  24,C  23,H  54)          107.28  0.000004   -0.00    107.28   
   163. A(C  22,C  23,H  54)          108.20 -0.000001   -0.00    108.20   
   164. A(O  24,C  23,H  55)          111.71 -0.000018    0.00    111.71   
   165. A(C  22,C  23,O  24)          112.50 -0.000009    0.01    112.51   
   166. A(C  23,O  24,H  56)          108.50 -0.000031    0.01    108.51   
   167. A(C  22,O  25,C  26)          114.68  0.000004    0.01    114.69   
   168. A(C  28,C  26,H  57)          109.35 -0.000009   -0.00    109.35   
   169. A(O  27,C  26,H  57)          110.42  0.000002    0.00    110.42   
   170. A(O  25,C  26,H  57)          109.77  0.000008   -0.00    109.77   
   171. A(O  27,C  26,C  28)          111.50 -0.000008    0.00    111.51   
   172. A(O  25,C  26,C  28)          109.22 -0.000001    0.00    109.23   
   173. A(O  25,C  26,O  27)          106.52  0.000009   -0.01    106.51   
   174. A(C  26,O  27,H  58)          108.01  0.000014    0.00    108.01   
   175. A(O  29,C  28,H  59)          110.47 -0.000017    0.01    110.48   
   176. A(C  26,C  28,H  59)          107.55  0.000006    0.00    107.56   
   177. A(C  19,C  28,H  59)          109.22  0.000006    0.00    109.23   
   178. A(C  26,C  28,O  29)          107.43 -0.000001    0.00    107.44   
   179. A(C  19,C  28,O  29)          111.77 -0.000006   -0.01    111.76   
   180. A(C  19,C  28,C  26)          110.29  0.000011   -0.01    110.28   
   181. A(C  28,O  29,H  60)          108.70  0.000002   -0.02    108.68   
   182. A(N  13,C  30,O  31)          125.27  0.000047   -0.00    125.27   
   183. A(C   4,C  30,O  31)          126.13 -0.000029    0.01    126.14   
   184. A(C   4,C  30,N  13)          108.59 -0.000018   -0.00    108.58   
   185. D(C   9,C   2,C   1,O   0)     59.87  0.000008   -0.12     59.74   
   186. D(H   3,C   2,C   1,N  13)    115.75  0.000023   -0.13    115.61   
   187. D(H   3,C   2,C   1,O   0)    -63.60  0.000021   -0.14    -63.73   
   188. D(C   4,C   2,C   1,N  13)     -3.70  0.000003   -0.10     -3.80   
   189. D(C   4,C   2,C   1,O   0)    176.96  0.000002   -0.11    176.86   
   190. D(C   5,C   4,C   2,H   3)    124.98 -0.000013    0.13    125.11   
   191. D(H  12,C   4,C   2,H   3)      5.67 -0.000029    0.15      5.82   
   192. D(C   5,C   4,C   2,C   1)   -118.79  0.000038    0.09   -118.70   
   193. D(H  12,C   4,C   2,C   1)    121.90  0.000021    0.11    122.01   
   194. D(H  12,C   4,C   2,C   9)   -115.62 -0.000006    0.13   -115.48   
   195. D(C   5,C   4,C   2,C   9)      3.70  0.000011    0.11      3.81   
   196. D(C   6,C   5,C   4,C  30)    -23.09  0.000007   -0.08    -23.17   
   197. D(C   8,C   5,C   4,C  30)   -143.70  0.000011   -0.08   -143.78   
   198. D(C   8,C   5,C   4,C   2)    -27.03  0.000001   -0.08    -27.11   
   199. D(C   6,C   5,C   4,C   2)     93.58 -0.000004   -0.08     93.50   
   200. D(C   6,C   5,C   4,H  12)   -144.85  0.000002   -0.09   -144.94   
   201. D(C   8,C   5,C   4,H  12)     94.54  0.000007   -0.09     94.44   
   202. D(C   7,C   6,C   5,C   8)   -127.51 -0.000012   -0.16   -127.67   
   203. D(H  33,C   6,C   5,C   4)    -64.16  0.000017   -0.16    -64.32   
   204. D(C   7,C   6,C   5,C   4)    117.62  0.000008   -0.16    117.46   
   205. D(C   7,C   6,C   5,H  32)     -5.05  0.000026   -0.16     -5.22   
   206. D(H  33,C   6,C   5,C   8)     50.71 -0.000002   -0.16     50.55   
   207. D(H  35,C   7,C   6,C   5)     -1.63  0.000018   -0.01     -1.65   
   208. D(H  34,C   7,C   6,H  33)      0.11  0.000006   -0.01      0.10   
   209. D(H  34,C   7,C   6,C   5)    178.30  0.000015   -0.01    178.29   
   210. D(H  35,C   7,C   6,H  33)   -179.82  0.000009   -0.01   -179.84   
   211. D(H  36,C   8,C   5,C   4)    -76.24 -0.000008    0.02    -76.22   
   212. D(H  36,C   8,C   5,C   6)    160.71  0.000050    0.01    160.72   
   213. D(C   9,C   8,C   5,H  32)    157.43  0.000017    0.01    157.44   
   214. D(C   9,C   8,C   5,C   6)    -81.99  0.000050    0.01    -81.98   
   215. D(C   9,C   8,C   5,C   4)     41.05 -0.000008    0.02     41.08   
   216. D(H  36,C   8,C   5,H  32)     40.13  0.000017    0.01     40.14   
   217. D(C  10,C   9,C   8,H  37)     73.52  0.000003    0.05     73.57   
   218. D(C  10,C   9,C   8,C   5)   -163.67  0.000010    0.06   -163.61   
   219. D(C   2,C   9,C   8,H  37)   -161.88  0.000014    0.04   -161.84   
   220. D(C   2,C   9,C   8,H  36)     77.91  0.000010    0.04     77.95   
   221. D(C   2,C   9,C   8,C   5)    -39.07  0.000020    0.05    -39.02   
   222. D(C  10,C   9,C   2,C   4)    148.91  0.000002   -0.11    148.80   
   223. D(C  10,C   9,C   2,C   1)    -95.47 -0.000017   -0.10    -95.57   
   224. D(C   8,C   9,C   2,C   4)     21.37 -0.000017   -0.10     21.28   
   225. D(C   8,C   9,C   2,H   3)   -101.07 -0.000010   -0.10   -101.17   
   226. D(C  10,C   9,C   8,H  36)    -46.69 -0.000000    0.05    -46.64   
   227. D(C   8,C   9,C   2,C   1)    136.99 -0.000035   -0.09    136.90   
   228. D(C  10,C   9,C   2,H   3)     26.47  0.000008   -0.11     26.36   
   229. D(H  39,C  10,C   9,C   8)    174.92  0.000007   -0.01    174.91   
   230. D(H  39,C  10,C   9,C   2)     55.66 -0.000000   -0.01     55.65   
   231. D(C  11,C  10,C   9,H  38)    116.11 -0.000012   -0.01    116.10   
   232. D(C  11,C  10,C   9,C   8)     -5.97  0.000010   -0.02     -5.99   
   233. D(C  11,C  10,C   9,C   2)   -125.23  0.000002   -0.02   -125.25   
   234. D(H  41,C  11,C  10,H  39)    179.29  0.000003   -0.01    179.28   
   235. D(H  41,C  11,C  10,C   9)      0.21  0.000000    0.00      0.21   
   236. D(H  40,C  11,C  10,H  39)     -0.34  0.000003   -0.01     -0.34   
   237. D(H  40,C  11,C  10,C   9)   -179.41  0.000000    0.00   -179.41   
   238. D(C  30,N  13,C   1,C   2)     -0.16 -0.000003    0.08     -0.07   
   239. D(C  30,N  13,C   1,O   0)    179.21 -0.000001    0.09    179.29   
   240. D(C  14,N  13,C   1,C   2)   -171.46 -0.000029    0.07   -171.38   
   241. D(C  14,N  13,C   1,O   0)      7.90 -0.000027    0.08      7.98   
   242. D(H  43,C  14,N  13,C   1)     46.51  0.000003    0.03     46.54   
   243. D(H  42,C  14,N  13,C  30)     -8.48 -0.000022    0.02     -8.46   
   244. D(H  42,C  14,N  13,C   1)    161.87 -0.000002    0.03    161.91   
   245. D(C  15,C  14,N  13,C  30)    115.29 -0.000019    0.01    115.30   
   246. D(C  15,C  14,N  13,C   1)    -74.36  0.000001    0.02    -74.34   
   247. D(C  16,C  15,C  14,N  13)    -55.54  0.000001    0.05    -55.50   
   248. D(H  44,C  15,C  14,H  43)    -51.81  0.000029    0.02    -51.79   
   249. D(H  44,C  15,C  14,H  42)   -170.16  0.000026    0.02   -170.13   
   250. D(H  44,C  15,C  14,N  13)     68.26  0.000013    0.04     68.30   
   251. D(C  16,C  15,C  14,H  43)   -175.61  0.000018    0.02   -175.59   
   252. D(C  16,C  15,C  14,H  42)     66.04  0.000015    0.03     66.07   
   253. D(H  46,C  16,C  15,H  45)   -167.09  0.000015   -0.12   -167.21   
   254. D(H  46,C  16,C  15,H  44)    -51.13 -0.000008   -0.10    -51.24   
   255. D(H  46,C  16,C  15,C  14)     73.02  0.000002   -0.11     72.92   
   256. D(C  17,C  16,C  15,H  45)     71.14  0.000041   -0.13     71.00   
   257. D(C  17,C  16,C  15,H  44)   -172.90  0.000019   -0.12   -173.02   
   258. D(C  17,C  16,C  15,C  14)    -48.75  0.000028   -0.12    -48.87   
   259. D(H  48,C  17,C  16,H  47)    -52.77 -0.000000   -0.23    -53.00   
   260. D(H  48,C  17,C  16,H  46)     61.84 -0.000005   -0.22     61.61   
   261. D(H  48,C  17,C  16,C  15)   -174.78 -0.000003   -0.22   -175.00   
   262. D(O  18,C  17,C  16,H  47)     67.94  0.000028   -0.25     67.69   
   263. D(O  18,C  17,C  16,H  46)   -177.46  0.000023   -0.24   -177.70   
   264. D(O  18,C  17,C  16,C  15)    -54.08  0.000025   -0.24    -54.31   
   265. D(C  19,O  18,C  17,H  49)     47.50  0.000050   -0.16     47.34   
   266. D(C  19,O  18,C  17,H  48)    -70.10  0.000031   -0.14    -70.24   
   267. D(C  19,O  18,C  17,C  16)    169.30  0.000012   -0.13    169.17   
   268. D(H  50,C  19,O  18,C  17)      5.04 -0.000020    0.43      5.47   
   269. D(C  28,C  19,O  18,C  17)    123.21  0.000003    0.40    123.60   
   270. D(C  20,C  19,O  18,C  17)   -116.16 -0.000005    0.40   -115.76   
   271. D(C  22,C  20,C  19,H  50)     63.43  0.000008   -0.01     63.43   
   272. D(C  22,C  20,C  19,C  28)    -54.35  0.000002   -0.00    -54.35   
   273. D(C  22,C  20,C  19,O  18)   -175.06  0.000006    0.01   -175.05   
   274. D(O  21,C  20,C  19,H  50)    -61.99  0.000017   -0.03    -62.02   
   275. D(O  21,C  20,C  19,C  28)   -179.77  0.000010   -0.03   -179.80   
   276. D(O  21,C  20,C  19,O  18)     59.52  0.000014   -0.01     59.51   
   277. D(H  52,O  21,C  20,H  51)    155.90 -0.000011    0.28    156.18   
   278. D(H  52,O  21,C  20,C  22)    -86.98 -0.000029    0.28    -86.70   
   279. D(H  52,O  21,C  20,C  19)     37.20 -0.000045    0.30     37.50   
   280. D(O  25,C  22,C  20,H  51)    -60.97 -0.000002   -0.02    -60.99   
   281. D(O  25,C  22,C  20,O  21)   -176.55 -0.000001   -0.01   -176.55   
   282. D(O  25,C  22,C  20,C  19)     56.69  0.000006   -0.02     56.67   
   283. D(C  23,C  22,C  20,H  51)     57.79  0.000006   -0.03     57.76   
   284. D(C  23,C  22,C  20,O  21)    -57.78  0.000007   -0.02    -57.80   
   285. D(C  23,C  22,C  20,C  19)    175.45  0.000014   -0.03    175.42   
   286. D(H  54,C  23,C  22,H  53)     68.66  0.000005   -0.07     68.59   
   287. D(H  54,C  23,C  22,O  25)    -49.74  0.000011   -0.07    -49.81   
   288. D(H  54,C  23,C  22,C  20)   -170.00  0.000009   -0.06   -170.06   
   289. D(O  24,C  23,C  22,H  53)    -49.68  0.000007   -0.07    -49.75   
   290. D(O  24,C  23,C  22,O  25)   -168.08  0.000013   -0.07   -168.15   
   291. D(O  24,C  23,C  22,C  20)     71.67  0.000011   -0.06     71.60   
   292. D(H  56,O  24,C  23,H  55)     67.04 -0.000003    0.04     67.08   
   293. D(H  56,O  24,C  23,H  54)   -175.20 -0.000021    0.04   -175.15   
   294. D(H  56,O  24,C  23,C  22)    -56.32 -0.000025    0.04    -56.28   
   295. D(C  26,O  25,C  22,H  53)     57.51  0.000015    0.02     57.53   
   296. D(C  26,O  25,C  22,C  23)    174.49 -0.000010    0.03    174.52   
   297. D(C  26,O  25,C  22,C  20)    -62.60 -0.000011    0.03    -62.57   
   298. D(H  57,C  26,O  25,C  22)    -57.41  0.000005   -0.01    -57.42   
   299. D(C  28,C  26,O  25,C  22)     62.48 -0.000001   -0.01     62.47   
   300. D(O  27,C  26,O  25,C  22)   -176.97 -0.000006   -0.01   -176.97   
   301. D(H  58,O  27,C  26,H  57)     72.63 -0.000027   -0.04     72.60   
   302. D(H  58,O  27,C  26,C  28)    -49.15 -0.000012   -0.04    -49.19   
   303. D(H  58,O  27,C  26,O  25)   -168.23 -0.000011   -0.04   -168.27   
   304. D(C  19,C  28,C  26,O  25)    -57.24  0.000003    0.00    -57.24   
   305. D(O  29,C  28,C  19,H  50)     55.95  0.000015   -0.01     55.93   
   306. D(O  29,C  28,C  19,C  20)    174.28  0.000003   -0.00    174.28   
   307. D(O  29,C  28,C  19,O  18)    -63.11 -0.000003    0.02    -63.09   
   308. D(C  26,C  28,C  19,H  50)    -63.50  0.000012   -0.00    -63.50   
   309. D(C  26,C  28,C  19,C  20)     54.83  0.000000    0.01     54.84   
   310. D(C  19,C  28,C  26,O  27)   -174.70 -0.000003    0.01   -174.69   
   311. D(C  26,C  28,C  19,O  18)    177.45 -0.000005    0.03    177.47   
   312. D(O  29,C  28,C  26,H  57)    -59.13  0.000008    0.01    -59.12   
   313. D(O  29,C  28,C  26,O  27)     63.26 -0.000002    0.02     63.28   
   314. D(O  29,C  28,C  26,O  25)   -179.28  0.000003    0.01   -179.27   
   315. D(C  19,C  28,C  26,H  57)     62.91  0.000007    0.00     62.91   
   316. D(H  60,O  29,C  28,H  59)    -55.09  0.000011   -0.26    -55.34   
   317. D(H  60,O  29,C  28,C  26)   -172.13  0.000014   -0.27   -172.40   
   318. D(H  60,O  29,C  28,C  19)     66.75  0.000004   -0.25     66.50   
   319. D(O  31,C  30,N  13,C   1)   -175.04  0.000019   -0.06   -175.10   
   320. D(C   4,C  30,N  13,C  14)    175.21  0.000006   -0.01    175.20   
   321. D(C   4,C  30,N  13,C   1)      4.08 -0.000000   -0.03      4.05   
   322. D(O  31,C  30,C   4,C   5)    -69.27 -0.000033   -0.01    -69.28   
   323. D(O  31,C  30,C   4,C   2)    172.99 -0.000017   -0.00    172.99   
   324. D(N  13,C  30,C   4,H  12)   -125.76 -0.000009   -0.05   -125.82   
   325. D(N  13,C  30,C   4,C   5)    111.63 -0.000014   -0.05    111.58   
   326. D(O  31,C  30,N  13,C  14)     -3.90  0.000025   -0.05     -3.95   
   327. D(N  13,C  30,C   4,C   2)     -6.11  0.000002   -0.04     -6.16   
    ----------------------------------------------------------------------------

Geometry step timings:
Preparation and reading OPT file:      0.003 s ( 0.566 %)
Internal coordinates            :      0.000 s ( 0.010 %)
B/P matrices and projection     :      0.011 s ( 2.564 %)
Hessian update/contruction      :      0.120 s (27.120 %)
Making the step                 :      0.007 s ( 1.642 %)
Converting the step to Cartesian:      0.001 s ( 0.210 %)
Storing new data                :      0.000 s ( 0.059 %)
Checking convergence            :      0.000 s ( 0.014 %)
Final printing                  :      0.301 s (67.814 %)
Total time                      :      0.444 s

Time for energy+gradient        :    402.849 s
Time for complete geometry iter :    403.379 s

         *************************************************************
         *                GEOMETRY OPTIMIZATION CYCLE  14            *
         *************************************************************
---------------------------------
CARTESIAN COORDINATES (ANGSTROEM)
---------------------------------
  O     -2.725530    2.673235    1.760231
  C     -2.527328    1.512621    1.583170
  C     -3.546851    0.396358    1.647083
  H     -3.918624    0.351846    2.664291
  C     -2.760214   -0.864536    1.260560
  C     -3.424003   -1.425834   -0.034759
  C     -2.799429   -0.960720   -1.327561
  C     -2.222546   -1.757384   -2.206100
  C     -4.870503   -0.909806    0.115183
  C     -4.724548    0.523296    0.645885
  C     -5.943705    1.168517    1.251296
  C     -7.165512    0.672636    1.278821
  H     -2.794765   -1.625192    2.030316
  N     -1.289973    0.966628    1.293816
  C     -0.055351    1.754615    1.343467
  C      0.148383    2.734532    0.186817
  C      0.102945    2.159499   -1.232722
  C      0.949916    0.921103   -1.475651
  O      2.284066    1.163570   -1.097422
  C      3.114720    0.034190   -1.049146
  C      3.613391   -0.253838    0.364220
  O      2.586712   -0.486423    1.292765
  C      4.610478   -1.422135    0.320378
  C      5.254933   -1.719823    1.670011
  O      4.363100   -2.302949    2.570696
  O      5.656718   -1.104981   -0.563362
  C      5.266528   -0.919576   -1.879058
  O      6.417395   -0.688747   -2.599933
  C      4.313406    0.262681   -1.956868
  O      3.930128    0.405750   -3.297791
  C     -1.322399   -0.401316    1.149034
  O     -0.366820   -1.100926    0.980237
  H     -3.391222   -2.507801   -0.018661
  H     -2.860144    0.093401   -1.548961
  H     -1.815624   -1.378555   -3.126526
  H     -2.134913   -2.817409   -2.041632
  H     -5.390706   -1.518605    0.849518
  H     -5.427127   -0.963170   -0.813219
  H     -4.405910    1.165962   -0.172204
  H     -5.761346    2.139085    1.684163
  H     -7.973617    1.219904    1.729845
  H     -7.416725   -0.283398    0.855327
  H      0.758360    1.052464    1.398632
  H     -0.074847    2.315738    2.268780
  H     -0.584728    3.529429    0.259615
  H      1.120787    3.186796    0.351202
  H     -0.919591    1.905310   -1.501234
  H      0.410944    2.943159   -1.919203
  H      0.910779    0.655431   -2.530458
  H      0.557605    0.081618   -0.919837
  H      2.570921   -0.834247   -1.417770
  H      4.138128    0.622665    0.725734
  H      1.855245   -0.976381    0.931555
  H      4.095814   -2.323455   -0.014123
  H      6.058635   -2.424900    1.512025
  H      5.690980   -0.806190    2.069614
  H      3.611815   -1.730179    2.664462
  H      4.761629   -1.815946   -2.244366
  H      6.166750   -0.379642   -3.462434
  H      4.854422    1.142448   -1.620313
  H      3.430473    1.206892   -3.387127

----------------------------
CARTESIAN COORDINATES (A.U.)
----------------------------
  NO LB      ZA    FRAG     MASS         X           Y           Z
   0 O     8.0000    0    15.999   -5.150506    5.051683    3.326355
   1 C     6.0000    0    12.011   -4.775958    2.858439    2.991758
   2 C     6.0000    0    12.011   -6.702577    0.749008    3.112536
   3 H     1.0000    0     1.008   -7.405126    0.664894    5.034781
   4 C     6.0000    0    12.011   -5.216048   -1.633737    2.382113
   5 C     6.0000    0    12.011   -6.470428   -2.694437   -0.065684
   6 C     6.0000    0    12.011   -5.290155   -1.815497   -2.508727
   7 C     6.0000    0    12.011   -4.200004   -3.320974   -4.168924
   8 C     6.0000    0    12.011   -9.203917   -1.719284    0.217664
   9 C     6.0000    0    12.011   -8.928102    0.988887    1.220545
  10 C     6.0000    0    12.011  -11.231974    2.208176    2.364607
  11 C     6.0000    0    12.011  -13.540856    1.271097    2.416622
  12 H     1.0000    0     1.008   -5.281341   -3.071167    3.836742
  13 N     7.0000    0    14.007   -2.437696    1.826662    2.444958
  14 C     6.0000    0    12.011   -0.104598    3.315742    2.538785
  15 C     6.0000    0    12.011    0.280403    5.167517    0.353032
  16 C     6.0000    0    12.011    0.194538    4.080861   -2.329506
  17 C     6.0000    0    12.011    1.795081    1.740633   -2.788576
  18 O     8.0000    0    15.999    4.316260    2.198830   -2.073827
  19 C     6.0000    0    12.011    5.885968    0.064609   -1.982598
  20 C     6.0000    0    12.011    6.828319   -0.479684    0.688275
  21 O     8.0000    0    15.999    4.888178   -0.919206    2.442971
  22 C     6.0000    0    12.011    8.712540   -2.687445    0.605426
  23 C     6.0000    0    12.011    9.930384   -3.249995    3.155863
  24 O     8.0000    0    15.999    8.245064   -4.351944    4.857911
  25 O     8.0000    0    15.999   10.689648   -2.088111   -1.064601
  26 C     6.0000    0    12.011    9.952297   -1.737746   -3.550905
  27 O     8.0000    0    15.999   12.127120   -1.301544   -4.913162
  28 C     6.0000    0    12.011    8.151156    0.496396   -3.697945
  29 O     8.0000    0    15.999    7.426865    0.766756   -6.231921
  30 C     6.0000    0    12.011   -2.498972   -0.758378    2.171360
  31 O     8.0000    0    15.999   -0.693190   -2.080448    1.852379
  32 H     1.0000    0     1.008   -6.408482   -4.739057   -0.035264
  33 H     1.0000    0     1.008   -5.404888    0.176502   -2.927113
  34 H     1.0000    0     1.008   -3.431032   -2.605091   -5.908278
  35 H     1.0000    0     1.008   -4.034401   -5.324131   -3.858125
  36 H     1.0000    0     1.008  -10.186959   -2.869747    1.605356
  37 H     1.0000    0     1.008  -10.255784   -1.820127   -1.536761
  38 H     1.0000    0     1.008   -8.325964    2.203349   -0.325419
  39 H     1.0000    0     1.008  -10.887367    4.042285    3.182607
  40 H     1.0000    0     1.008  -15.067952    2.305285    3.268933
  41 H     1.0000    0     1.008  -14.015579   -0.535544    1.616334
  42 H     1.0000    0     1.008    1.433093    1.988868    2.643031
  43 H     1.0000    0     1.008   -0.141441    4.376110    4.287373
  44 H     1.0000    0     1.008   -1.104976    6.669654    0.490601
  45 H     1.0000    0     1.008    2.117981    6.022172    0.663676
  46 H     1.0000    0     1.008   -1.737775    3.600513   -2.836921
  47 H     1.0000    0     1.008    0.776571    5.561764   -3.626767
  48 H     1.0000    0     1.008    1.721122    1.238586   -4.781872
  49 H     1.0000    0     1.008    1.053722    0.154236   -1.738240
  50 H     1.0000    0     1.008    4.858337   -1.576499   -2.679197
  51 H     1.0000    0     1.008    7.819929    1.176667    1.371439
  52 H     1.0000    0     1.008    3.505906   -1.845093    1.760384
  53 H     1.0000    0     1.008    7.739966   -4.390694   -0.026688
  54 H     1.0000    0     1.008   11.449161   -4.582396    2.857313
  55 H     1.0000    0     1.008   10.754394   -1.523479    3.911003
  56 H     1.0000    0     1.008    6.825340   -3.269564    5.035103
  57 H     1.0000    0     1.008    8.998174   -3.431640   -4.241238
  58 H     1.0000    0     1.008   11.653469   -0.717420   -6.543053
  59 H     1.0000    0     1.008    9.173528    2.158914   -3.061947
  60 H     1.0000    0     1.008    6.482654    2.280695   -6.400743

--------------------------------
INTERNAL COORDINATES (ANGSTROEM)
--------------------------------
 O      0   0   0     0.000000000000     0.00000000     0.00000000
 C      1   0   0     1.190655935903     0.00000000     0.00000000
 C      2   1   0     1.513127474707   126.91738618     0.00000000
 H      3   2   1     1.083931981250   107.51957833   296.26938640
 C      3   2   1     1.535595127775   104.47503017   176.85733966
 C      5   3   2     1.559974990949   106.64701907   241.30184679
 C      6   5   3     1.509225605704   115.10595489    93.50302198
 C      7   6   5     1.318824300559   124.43596025   117.46342326
 C      6   5   3     1.543090879520   101.41228375   332.88603196
 C      9   6   5     1.535164275110   104.87124074    41.07665112
 C     10   9   6     1.506377995413   117.50578431   196.38771498
 C     11  10   9     1.318889427718   126.66248183   354.01279400
 H      5   3   2     1.082735326111   112.43033107   122.01118174
 N      2   1   3     1.383069419327   124.39165293   180.75235315
 C     14   2   1     1.465496583916   122.29980719     7.98204037
 C     15  14   2     1.529570111139   115.53517761   285.66043619
 C     16  15  14     1.532258650438   117.14142911   304.50024386
 C     17  16  15     1.519867439183   115.93403818   311.13239544
 O     18  17  16     1.407765882004   110.17224823   305.68941739
 C     19  18  17     1.402789255340   115.57930250   169.17271975
 C     20  19  18     1.526182722334   112.16599145   244.23766772
 O     21  20  19     1.403695392601   113.88411000    59.50643956
 C     21  20  19     1.536561538267   109.21392634   184.95420449
 C     23  21  20     1.524942446896   113.41629384   175.41769190
 O     24  23  21     1.395218694188   112.50670349    71.60276899
 O     23  21  20     1.405774609503   109.22910861    56.66537748
 C     26  23  21     1.384802484851   114.69456792   297.42533238
 O     27  26  23     1.377475088668   106.51331310   183.02745903
 C     27  26  23     1.520601709533   109.22777785    62.47082930
 O     29  27  26     1.401942786854   107.43655035   180.73201413
 C     14   2   1     1.375966843328   113.16606192   179.29204786
 O     31  14   2     1.196276244987   125.27037091   184.89777572
 H      6   5   3     1.082582667888   109.53458754   215.33306193
 H      7   6   5     1.078830321825   116.97658053   295.67856245
 H      8   7   6     1.075305458598   121.52852779   178.28967031
 H      8   7   6     1.076281998496   121.92221162   358.35246564
 H      9   6   5     1.086506126668   109.09341129   283.77660383
 H      9   6   5     1.083792982110   112.44131785   164.25765801
 H     10   9   6     1.088034487256   108.62135997    75.32637382
 H     11  10   9     1.078254222449   114.20576711   174.90603375
 H     12  11  10     1.075154945935   120.90826535   180.59143475
 H     12  11  10     1.075385615398   122.85011831     0.21218674
 H     15  14   2     1.076190078973   106.73288333   161.90488503
 H     15  14   2     1.082332481248   107.01067389    46.54130730
 H     16  15  14     1.083795539140   109.20717522    68.30147653
 H     16  15  14     1.084959369257   105.77492817   183.00416696
 H     17  16  15     1.087332206315   110.14502430    72.91842833
 H     17  16  15     1.086389301697   107.83586116   188.41394634
 H     18  17  16     1.088453690343   109.49572556   185.00295190
 H     18  17  16     1.080542457236   110.39489218    67.20186464
 H     20  19  18     1.088936854782   109.55512425     5.46604732
 H     21  20  19     1.083651381325   108.33174259   302.44651736
 H     22  21  20     0.951617091283   113.35496527    37.49663803
 H     23  21  20     1.090480841789   109.32547749   296.04116033
 H     24  23  21     1.080754387997   108.19505795   189.93955400
 H     24  23  21     1.088368348658   109.29261465   306.90234815
 H     25  24  23     0.949361983045   108.50848046   303.71899457
 H     27  26  23     1.091720246105   109.77343221   302.58242311
 H     28  27  26     0.949882502106   108.01459429   191.73111732
 H     29  27  26     1.086258524148   107.55720105    61.78509281
 H     30  29  27     0.948401314374   108.68317218   187.60327551

---------------------------
INTERNAL COORDINATES (A.U.)
---------------------------
 O      0   0   0     0.000000000000     0.00000000     0.00000000
 C      1   0   0     2.250013638584     0.00000000     0.00000000
 C      2   1   0     2.859396532907   126.91738618     0.00000000
 H      3   2   1     2.048334592362   107.51957833   296.26938640
 C      3   2   1     2.901854244078   104.47503017   176.85733966
 C      5   3   2     2.947925508659   106.64701907   241.30184679
 C      6   5   3     2.852023069081   115.10595489    93.50302198
 C      7   6   5     2.492216746818   124.43596025   117.46342326
 C      6   5   3     2.916019162045   101.41228375   332.88603196
 C      9   6   5     2.901040050538   104.87124074    41.07665112
 C     10   9   6     2.846641865496   117.50578431   196.38771498
 C     11  10   9     2.492339819312   126.66248183   354.01279400
 H      5   3   2     2.046073241871   112.43033107   122.01118174
 N      2   1   3     2.613622426730   124.39165293   180.75235315
 C     14   2   1     2.769387193799   122.29980719     7.98204037
 C     15  14   2     2.890468612684   115.53517761   285.66043619
 C     16  15  14     2.895549215659   117.14142911   304.50024386
 C     17  16  15     2.872133219920   115.93403818   311.13239544
 O     18  17  16     2.660291977665   110.17224823   305.68941739
 C     19  18  17     2.650887516200   115.57930250   169.17271975
 C     20  19  18     2.884067375533   112.16599145   244.23766772
 O     21  20  19     2.652599867464   113.88411000    59.50643956
 C     21  20  19     2.903680495241   109.21392634   184.95420449
 C     23  21  20     2.881723594625   113.41629384   175.41769190
 O     24  23  21     2.636581228943   112.50670349    71.60276899
 O     23  21  20     2.656529017981   109.22910861    56.66537748
 C     26  23  21     2.616897445943   114.69456792   297.42533238
 O     27  26  23     2.603050673882   106.51331310   183.02745903
 C     27  26  23     2.873520789790   109.22777785    62.47082930
 O     29  27  26     2.649287922580   107.43655035   180.73201413
 C     14   2   1     2.600200503245   113.16606192   179.29204786
 O     31  14   2     2.260634483541   125.27037091   184.89777572
 H      6   5   3     2.045784759639   109.53458754   215.33306193
 H      7   6   5     2.038693853220   116.97658053   295.67856245
 H      8   7   6     2.032032827061   121.52852779   178.28967031
 H      8   7   6     2.033878220027   121.92221162   358.35246564
 H      9   6   5     2.053199022229   109.09341129   283.77660383
 H      9   6   5     2.048071922055   112.44131785   164.25765801
 H     10   9   6     2.056087205176   108.62135997    75.32637382
 H     11  10   9     2.037605183173   114.20576711   174.90603375
 H     12  11  10     2.031748399348   120.90826535   180.59143475
 H     12  11  10     2.032184301461   122.85011831     0.21218674
 H     15  14   2     2.033704517302   106.73288333   161.90488503
 H     15  14   2     2.045311975406   107.01067389    46.54130730
 H     16  15  14     2.048076754141   109.20717522    68.30147653
 H     16  15  14     2.050276074327   105.77492817   183.00416696
 H     17  16  15     2.054760086527   110.14502430    72.91842833
 H     17  16  15     2.052978255029   107.83586116   188.41394634
 H     18  17  16     2.056879384205   109.49572556   185.00295190
 H     18  17  16     2.041929320251   110.39489218    67.20186464
 H     20  19  18     2.057792432671   109.55512425     5.46604732
 H     21  20  19     2.047804335350   108.33174259   302.44651736
 H     22  21  20     1.798295686884   113.35496527    37.49663803
 H     23  21  20     2.060710145269   109.32547749   296.04116033
 H     24  23  21     2.042329811349   108.19505795   189.93955400
 H     24  23  21     2.056718111791   109.29261465   306.90234815
 H     25  24  23     1.794034149912   108.50848046   303.71899457
 H     27  26  23     2.063052279996   109.77343221   302.58242311
 H     28  27  26     1.795017788384   108.01459429   191.73111732
 H     29  27  26     2.052731121276   107.55720105    61.78509281
 H     30  29  27     1.792218749218   108.68317218   187.60327551

------------------------------------------------------------------------------
                   ___                                                        
                  /   \      - P O W E R E D   B Y -                         
                 /     \                                                     
                 |  |  |   _    _      __       _____    __    __             
                 |  |  |  | |  | |    /  \     |  _  \  |  |  /  |          
                  \  \/   | |  | |   /    \    | | | |  |  | /  /          
                 / \  \   | |__| |  /  /\  \   | |_| |  |  |/  /          
                |  |  |   |  __  | /  /__\  \  |    /   |      \           
                |  |  |   | |  | | |   __   |  |    \   |  |\   \          
                \     /   | |  | | |  |  |  |  | |\  \  |  | \   \       
                 \___/    |_|  |_| |__|  |__|  |_| \__\ |__|  \__/        
                                                                              
                      - O R C A' S   B I G   F R I E N D -                    
                                      &                                       
                       - I N T E G R A L  F E E D E R -                       
                                                                              
 v1 FN, 2020, v2 2021, v3 2022-2024                                           
------------------------------------------------------------------------------


----------------------
SHARK INTEGRAL PACKAGE
----------------------

Number of atoms                             ...     61
Number of basis functions                   ...    482
Number of shells                            ...    242
Maximum angular momentum                    ...      2
Integral batch strategy                     ... SHARK/LIBINT Hybrid
RI-J (if used) integral strategy            ... SPLIT-RIJ (Revised 2003 algorithm where possible)
Printlevel                                  ...      1
Contraction scheme used                     ... SEGMENTED contraction
Prescreening option                         ... SCHWARTZ
   Thresh                                   ... 2.500e-11
   Tcut                                     ... 2.500e-12
   Tpresel                                  ... 2.500e-12 
Coulomb Range Separation                    ... NOT USED
Exchange Range Separation                   ... NOT USED
Multipole approximations                    ... NOT USED
Finite Nucleus Model                        ... NOT USED
CABS basis                                  ... NOT available
Auxiliary Coulomb fitting basis             ... NOT available
Auxiliary J/K fitting basis                 ... NOT available
Auxiliary Correlation fitting basis         ... NOT available
Auxiliary 'external' fitting basis          ... NOT available

Checking pre-screening integrals            ... done (  0.0 sec) Dimension = 242
Check shell pair data                       ... done (  0.0 sec)
Shell pair information
Shell pair cut-off parameter TPreSel        ...   2.5e-12
Total number of shell pairs                 ...     29403
Shell pairs after pre-screening             ...     18255
Total number of primitive shell pairs       ...    165748
Primitive shell pairs kept                  ...     54341
          la=0 lb=0:   6944 shell pairs
          la=1 lb=0:   6123 shell pairs
          la=1 lb=1:   1357 shell pairs
          la=2 lb=0:   2462 shell pairs
          la=2 lb=1:   1136 shell pairs
          la=2 lb=2:    233 shell pairs

Calculating one electron integrals          ... done (  0.2 sec)
Calculating Nuclear repulsion               ... done (  0.0 sec) ENN=   3220.426482456980 Eh

Diagonalization of the overlap matrix:
Smallest eigenvalue                        ... 1.174e-03
Time for diagonalization                   ...    0.022 sec
Threshold for overlap eigenvalues          ... 1.000e-07
Number of eigenvalues below threshold      ... 0
Time for construction of square roots      ...    0.011 sec
Total time needed                          ...    0.034 sec

-------------------
DFT GRID GENERATION
-------------------

General Integration Accuracy     IntAcc      ... 4.388
Radial Grid Type                 RadialGrid  ... OptM3 with GC (2021)
Angular Grid (max. ang.)         AngularGrid ... 4 (Lebedev-302)
Angular grid pruning method      GridPruning ... 4 (adaptive)
Weight generation scheme         WeightScheme... mBecke (2022)
Basis function cutoff            BFCut       ... 1.0000e-11
Integration weight cutoff        WCut        ... 1.0000e-14
Partially contracted basis set               ... off
Rotationally invariant grid construction     ... off
Angular grids for H and He will be reduced by one unit

Total number of grid points                  ...   276063
Total number of batches                      ...     4345
Average number of points per batch           ...       63
Average number of grid points per atom       ...     4526
Initializing property integral containers    ... done (  0.0 sec)

SHARK setup successfully completed in   4.6 seconds

Maximum memory used throughout the entire STARTUP-calculation: 121.6 MB
Occupation numbers will be reassigned to an Aufbau configuration
             **** ENERGY FILE WAS UPDATED (monomer_hf_opt.en.tmp) ****
Finished Guess after   0.7 sec
Maximum memory used throughout the entire GUESS-calculation: 46.2 MB
----------------------------------------D-I-I-S--------------------------------------------
Iteration    Energy (Eh)           Delta-E    RMSDP     MaxDP     DIISErr   Damp  Time(sec)
-------------------------------------------------------------------------------------------
               ***  Starting incremental Fock matrix formation  ***
                              *** Initializing SOSCF ***
---------------------------------------S-O-S-C-F--------------------------------------
Iteration    Energy (Eh)           Delta-E    RMSDP     MaxDP     MaxGrad    Time(sec)
--------------------------------------------------------------------------------------
    1    -1466.5862241834111046     0.00e+00  1.99e-05  1.08e-03  6.13e-05    51.4
               *** Restarting incremental Fock matrix formation ***
    2    -1466.5862607189183109    -3.65e-05  1.07e-05  4.19e-04  1.52e-04    50.7
    3    -1466.5862677369514131    -7.02e-06  6.80e-06  2.44e-04  7.41e-05    32.6
    4    -1466.5862688524748592    -1.12e-06  9.28e-07  5.79e-05  1.51e-05    30.9
    5    -1466.5862688778843221    -2.54e-08  5.95e-07  3.52e-05  6.01e-06    25.1
    6    -1466.5862688865108794    -8.63e-09  1.44e-07  6.26e-06  9.30e-07    23.7
                 **** Energy Check signals convergence ****

               *****************************************************
               *                     SUCCESS                       *
               *           SCF CONVERGED AFTER   6 CYCLES          *
               *****************************************************

             **** ENERGY FILE WAS UPDATED (monomer_hf_opt.en.tmp) ****

----------------
TOTAL SCF ENERGY
----------------

Total Energy       :      -1466.58626888651088 Eh          -39907.84125 eV

Components:
Nuclear Repulsion  :       3220.42648245698001 Eh           87632.25973 eV
Electronic Energy  :      -4687.01275134349089 Eh         -127540.10098 eV
One Electron Energy:      -8415.61020544345956 Eh         -229000.39585 eV
Two Electron Energy:       3728.59745409996867 Eh          101460.29487 eV

Virial components:
Potential Energy   :      -2933.26401013646137 Eh          -79818.17159 eV
Kinetic Energy     :       1466.67774124995071 Eh           39910.33034 eV
Virial Ratio       :          1.99993763295040

---------------
SCF CONVERGENCE
---------------

  Last Energy change         ...    8.6266e-09  Tolerance :   1.0000e-08
  Last MAX-Density change    ...    6.2615e-06  Tolerance :   1.0000e-07
  Last RMS-Density change    ...    1.4441e-07  Tolerance :   5.0000e-09
  Last DIIS Error            ...    2.0747e-03  Tolerance :   5.0000e-07
  Last Orbital Gradient      ...    9.2998e-07  Tolerance :   1.0000e-05
  Last Orbital Rotation      ...    1.2876e-06  Tolerance :   1.0000e-05


Total SCF time: 0 days 0 hours 3 min 34 sec 
Finished LeanSCF after 214.5 sec

Maximum memory used throughout the entire LEANSCF-calculation: 48.9 MB

-------------------------   --------------------
FINAL SINGLE POINT ENERGY     -1466.586268886511
-------------------------   --------------------

------------------------------------------------------------------------------
                         ORCA SCF GRADIENT CALCULATION
------------------------------------------------------------------------------

Nuc. rep. gradient        (SHARK) ... done (  0.0 sec)
HCore & Overlap gradient  (SHARK) ... done (  3.0 sec)
Two-electron gradient     (SHARK) ... done (178.9 sec)

------------------
CARTESIAN GRADIENT
------------------

   1   O   :    0.000014424    0.000023434    0.000002632
   2   C   :   -0.000041130    0.000011100   -0.000022873
   3   C   :    0.000061382   -0.000017632    0.000024532
   4   H   :   -0.000033324   -0.000000076   -0.000010144
   5   C   :    0.000002808   -0.000005240    0.000044219
   6   C   :   -0.000036225    0.000038991   -0.000014274
   7   C   :    0.000011602   -0.000057670    0.000042909
   8   C   :    0.000028818   -0.000033146   -0.000054914
   9   C   :    0.000009278   -0.000015632   -0.000025309
  10   C   :   -0.000010512    0.000013499   -0.000012009
  11   C   :    0.000027720   -0.000014905    0.000000610
  12   C   :   -0.000037046    0.000002944    0.000007074
  13   H   :   -0.000012539   -0.000001104   -0.000004733
  14   N   :    0.000069785   -0.000133308    0.000011205
  15   C   :   -0.000046696    0.000068805   -0.000018610
  16   C   :    0.000001769   -0.000090378   -0.000055330
  17   C   :    0.000013117   -0.000003737   -0.000009112
  18   C   :    0.000021330    0.000055658   -0.000025949
  19   O   :   -0.000018384    0.000008856    0.000053672
  20   C   :    0.000027882   -0.000008023   -0.000058312
  21   C   :   -0.000050733    0.000060587    0.000017572
  22   O   :    0.000060318   -0.000057458   -0.000013677
  23   C   :    0.000018855    0.000003530   -0.000012329
  24   C   :   -0.000020733    0.000025993   -0.000030577
  25   O   :   -0.000003115   -0.000053476    0.000016614
  26   O   :    0.000009109   -0.000011130   -0.000021317
  27   C   :   -0.000002984   -0.000016197    0.000041193
  28   O   :    0.000018541    0.000040923    0.000029939
  29   C   :    0.000003205   -0.000012450    0.000028300
  30   O   :   -0.000001917   -0.000025998   -0.000024656
  31   C   :   -0.000018811    0.000092361   -0.000015375
  32   O   :    0.000042933   -0.000030767   -0.000008043
  33   H   :   -0.000002687   -0.000006682   -0.000002586
  34   H   :   -0.000000151    0.000015578    0.000001250
  35   H   :   -0.000021253    0.000048698    0.000011663
  36   H   :   -0.000010843   -0.000004058    0.000020204
  37   H   :    0.000015651    0.000005748    0.000020971
  38   H   :    0.000007820    0.000008219   -0.000005049
  39   H   :   -0.000020213    0.000009986    0.000000629
  40   H   :   -0.000005743    0.000006376    0.000003129
  41   H   :    0.000002340    0.000009158    0.000003825
  42   H   :    0.000019765   -0.000008809   -0.000008107
  43   H   :    0.000017678   -0.000003897    0.000000364
  44   H   :   -0.000018371    0.000010159   -0.000005478
  45   H   :    0.000017694    0.000022114    0.000022537
  46   H   :   -0.000000898    0.000006712    0.000029457
  47   H   :   -0.000001834    0.000006648   -0.000016435
  48   H   :   -0.000010400    0.000017878    0.000016416
  49   H   :   -0.000001534   -0.000039705    0.000012903
  50   H   :   -0.000020252   -0.000016122    0.000013028
  51   H   :   -0.000011857   -0.000009477    0.000026625
  52   H   :    0.000015191    0.000002229   -0.000006463
  53   H   :   -0.000062635    0.000019190   -0.000001396
  54   H   :    0.000003757   -0.000010902    0.000016241
  55   H   :    0.000016729    0.000009171   -0.000001871
  56   H   :    0.000006132   -0.000006419    0.000021998
  57   H   :   -0.000014398    0.000035810   -0.000005994
  58   H   :   -0.000016901    0.000007113   -0.000020055
  59   H   :   -0.000000557   -0.000025057   -0.000036399
  60   H   :   -0.000002084    0.000005495    0.000001463
  61   H   :   -0.000008877    0.000026490    0.000004199

Difference to translation invariance:
           :   -0.0000000000    0.0000000000    0.0000000000

Difference to rotation invariance:
           :   -0.0000012569   -0.0000052808   -0.0000005780

Norm of the Cartesian gradient     ...    0.0003809877
RMS gradient                       ...    0.0000281634
MAX gradient                       ...    0.0001333085

-------
TIMINGS
-------

Total SCF gradient time     ....      181.868 sec

Densities                   ....       0.005 sec  (  0.0%)
One electron gradient       ....       2.960 sec  (  1.6%)
Two electron gradient       ....     178.902 sec  ( 98.4%)

Maximum memory used throughout the entire SCFGRAD-calculation: 105.6 MB
------------------------------------------------------------------------------
                         ORCA GEOMETRY RELAXATION STEP
------------------------------------------------------------------------------

Reading the OPT-File                    .... done
Getting information on internals        .... done
Copying old internal coords+grads       .... done
Making the new internal coordinates     .... (2022 redundants) done
Validating the new internal coordinates .... (2022 redundants) done
Calculating the B-matrix                .... done
Calculating the G,G- and P matrices     .... done
Transforming gradient to internals      .... done
Projecting the internal gradient        .... done
Number of atoms                         ....  61
Number of internal coordinates          .... 327
Current Energy                          .... -1466.586268887 Eh
Current gradient norm                   ....     0.000380988 Eh/bohr
Maximum allowed component of the step   ....  0.300
Current trust radius                    ....  0.700
Updating the Hessian (BFGS)             .... done
Forming the augmented Hessian           .... done
Diagonalizing the augmented Hessian     .... done
Last element of RFO vector              ....  0.999894524
Lowest eigenvalues of augmented Hessian:
 -0.000001017  0.000813012  0.002107407  0.005811730  0.012320094
Length of the computed step             ....  0.014525325
The final length of the internal step   ....  0.014525325
Converting the step to Cartesian space:
 Initial RMS(Int)=    0.0008032523
Transforming coordinates:
 Iter   0:  RMS(Cart)=    0.0019984222 RMS(Int)=    0.0008030862
done
Storing new coordinates                 .... done
The predicted energy change is          ....    -0.000000509
Previously predicted energy change      ....    -0.000001184
Actually observed energy change         ....    -0.000001559
Ratio of predicted to observed change   ....     1.317024010
New trust radius                        ....     0.700000000

                                .--------------------.
          ----------------------|Geometry convergence|-------------------------
          Item                value                   Tolerance       Converged
          ---------------------------------------------------------------------
          Energy change      -0.0000015594            0.0000050000      YES
          RMS gradient        0.0000166072            0.0001000000      YES
          MAX gradient        0.0000910443            0.0003000000      YES
          RMS step            0.0008032523            0.0020000000      YES
          MAX step            0.0062952041            0.0040000000      NO
          ........................................................
          Max(Bonds)      0.0033      Max(Angles)    0.03
          Max(Dihed)        0.20      Max(Improp)    0.00
          ---------------------------------------------------------------------

       The gradient convergence is overachieved with 
       reasonable convergence on the displacements
       Convergence will therefore be signaled now


                    ***********************HURRAY********************
                    ***        THE OPTIMIZATION HAS CONVERGED     ***
                    *************************************************


    ---------------------------------------------------------------------------
                         Redundant Internal Coordinates

                          --- Optimized Parameters ---  
                            (Angstroem and degrees)

        Definition                    OldVal   dE/dq     Step     FinalVal
    ----------------------------------------------------------------------------
     1. B(C   1,O   0)                1.1907  0.000021 -0.0000    1.1906   
     2. B(C   2,C   1)                1.5131 -0.000012  0.0000    1.5131   
     3. B(H   3,C   2)                1.0839  0.000002  0.0000    1.0839   
     4. B(C   4,C   2)                1.5356 -0.000011 -0.0000    1.5356   
     5. B(C   5,C   4)                1.5600  0.000010 -0.0000    1.5600   
     6. B(C   6,C   5)                1.5092 -0.000022  0.0000    1.5093   
     7. B(C   7,C   6)                1.3188  0.000006 -0.0000    1.3188   
     8. B(C   8,C   5)                1.5431 -0.000019  0.0000    1.5431   
     9. B(C   9,C   8)                1.5352 -0.000002  0.0000    1.5352   
    10. B(C   9,C   2)                1.5510  0.000007 -0.0000    1.5509   
    11. B(C  10,C   9)                1.5064 -0.000005  0.0000    1.5064   
    12. B(C  11,C  10)                1.3189  0.000013 -0.0000    1.3189   
    13. B(H  12,C   4)                1.0827 -0.000002  0.0000    1.0827   
    14. B(N  13,C   1)                1.3831  0.000029 -0.0000    1.3830   
    15. B(C  14,N  13)                1.4655 -0.000023  0.0000    1.4655   
    16. B(C  15,C  14)                1.5296 -0.000031  0.0001    1.5296   
    17. B(C  16,C  15)                1.5323 -0.000022  0.0000    1.5323   
    18. B(C  17,C  16)                1.5199 -0.000021  0.0000    1.5199   
    19. B(O  18,C  17)                1.4078 -0.000008 -0.0000    1.4078   
    20. B(C  19,O  18)                1.4028 -0.000001  0.0000    1.4028   
    21. B(C  20,C  19)                1.5262 -0.000013  0.0000    1.5262   
    22. B(O  21,C  20)                1.4037 -0.000018  0.0000    1.4037   
    23. B(C  22,C  20)                1.5366  0.000020 -0.0000    1.5365   
    24. B(C  23,C  22)                1.5249  0.000002  0.0000    1.5250   
    25. B(O  24,C  23)                1.3952  0.000030 -0.0000    1.3952   
    26. B(O  25,C  22)                1.4058  0.000007 -0.0000    1.4058   
    27. B(C  26,O  25)                1.3848 -0.000013  0.0000    1.3848   
    28. B(O  27,C  26)                1.3775  0.000017 -0.0000    1.3775   
    29. B(C  28,C  26)                1.5206 -0.000005 -0.0000    1.5206   
    30. B(C  28,C  19)                1.5209 -0.000013 -0.0000    1.5208   
    31. B(O  29,C  28)                1.4019  0.000021 -0.0001    1.4019   
    32. B(C  30,N  13)                1.3760 -0.000053  0.0001    1.3760   
    33. B(C  30,C   4)                1.5147  0.000014 -0.0001    1.5146   
    34. B(O  31,C  30)                1.1963  0.000040 -0.0000    1.1963   
    35. B(H  32,C   5)                1.0826  0.000007 -0.0000    1.0826   
    36. B(H  33,C   6)                1.0788  0.000015 -0.0000    1.0788   
    37. B(H  34,C   7)                1.0753  0.000002  0.0000    1.0753   
    38. B(H  35,C   7)                1.0763  0.000006 -0.0000    1.0763   
    39. B(H  36,C   8)                1.0865  0.000003 -0.0000    1.0865   
    40. B(H  37,C   8)                1.0838 -0.000000  0.0000    1.0838   
    41. B(H  38,C   9)                1.0880 -0.000001 -0.0000    1.0880   
    42. B(H  39,C  10)                1.0783  0.000006 -0.0000    1.0782   
    43. B(H  40,C  11)                1.0752  0.000005 -0.0000    1.0751   
    44. B(H  41,C  11)                1.0754  0.000006 -0.0000    1.0754   
    45. B(H  42,C  14)                1.0762  0.000016 -0.0000    1.0762   
    46. B(H  43,C  14)                1.0823  0.000001  0.0000    1.0823   
    47. B(H  44,C  15)                1.0838  0.000006 -0.0000    1.0838   
    48. B(H  45,C  15)                1.0850  0.000006 -0.0000    1.0850   
    49. B(H  46,C  16)                1.0873  0.000004 -0.0000    1.0873   
    50. B(H  47,C  16)                1.0864 -0.000000  0.0000    1.0864   
    51. B(H  48,C  17)                1.0885 -0.000000  0.0000    1.0885   
    52. B(H  48,H  34)                3.4534  0.000007 -0.0033    3.4500   
    53. B(H  49,C  17)                1.0805  0.000027 -0.0001    1.0805   
    54. B(H  50,C  19)                1.0889  0.000004  0.0000    1.0889   
    55. B(H  51,C  20)                1.0837  0.000007 -0.0000    1.0836   
    56. B(H  52,O  21)                0.9516  0.000025 -0.0000    0.9516   
    57. B(H  52,O  31)                2.2261 -0.000018  0.0025    2.2286   
    58. B(H  53,C  22)                1.0905  0.000002  0.0000    1.0905   
    59. B(H  54,C  23)                1.0808  0.000007 -0.0000    1.0807   
    60. B(H  55,C  23)                1.0884  0.000005 -0.0000    1.0884   
    61. B(H  56,O  24)                0.9494  0.000024 -0.0000    0.9493   
    62. B(H  56,O  21)                2.1164 -0.000012 -0.0001    2.1163   
    63. B(H  57,C  26)                1.0917  0.000009 -0.0000    1.0917   
    64. B(H  58,O  27)                0.9499  0.000027 -0.0000    0.9498   
    65. B(H  58,O  29)                2.3762  0.000005 -0.0002    2.3760   
    66. B(H  59,C  28)                1.0863  0.000004  0.0000    1.0863   
    67. B(H  60,O  29)                0.9484  0.000027 -0.0000    0.9484   
    68. A(O   0,C   1,N  13)          124.39 -0.000015    0.00    124.40   
    69. A(O   0,C   1,C   2)          126.92  0.000025   -0.00    126.91   
    70. A(C   2,C   1,N  13)          108.69 -0.000010   -0.00    108.69   
    71. A(C   1,C   2,H   3)          107.52  0.000027   -0.02    107.50   
    72. A(H   3,C   2,C   4)          112.22  0.000001   -0.01    112.21   
    73. A(H   3,C   2,C   9)          110.41 -0.000020    0.02    110.43   
    74. A(C   1,C   2,C   9)          115.09 -0.000014    0.01    115.09   
    75. A(C   4,C   2,C   9)          107.08  0.000012    0.00    107.08   
    76. A(C   1,C   2,C   4)          104.48 -0.000005   -0.00    104.47   
    77. A(H  12,C   4,C  30)          107.31  0.000010    0.00    107.31   
    78. A(C   2,C   4,H  12)          112.43  0.000001   -0.00    112.43   
    79. A(C   5,C   4,C  30)          116.92 -0.000015    0.01    116.93   
    80. A(C   2,C   4,C   5)          106.65 -0.000012    0.00    106.65   
    81. A(C   2,C   4,C  30)          104.70  0.000010    0.00    104.70   
    82. A(C   5,C   4,H  12)          108.90  0.000006   -0.01    108.89   
    83. A(C   6,C   5,C   8)          111.60  0.000003    0.00    111.60   
    84. A(C   4,C   5,C   8)          101.41  0.000008   -0.00    101.41   
    85. A(C   6,C   5,H  32)          107.95  0.000012   -0.00    107.95   
    86. A(C   4,C   5,H  32)          109.53  0.000004   -0.01    109.53   
    87. A(C   4,C   5,C   6)          115.11 -0.000024    0.01    115.12   
    88. A(C   8,C   5,H  32)          111.17 -0.000004   -0.00    111.17   
    89. A(C   5,C   6,C   7)          124.44  0.000091   -0.01    124.43   
    90. A(C   5,C   6,H  33)          116.98 -0.000049    0.01    116.98   
    91. A(C   7,C   6,H  33)          118.56 -0.000042    0.00    118.57   
    92. A(C   6,C   7,H  35)          121.92  0.000008    0.01    121.93   
    93. A(C   6,C   7,H  34)          121.53 -0.000061   -0.00    121.53   
    94. A(H  34,C   7,H  35)          116.55  0.000054   -0.01    116.54   
    95. A(C   9,C   8,H  36)          109.57  0.000000    0.01    109.58   
    96. A(C   5,C   8,H  36)          109.09 -0.000015    0.00    109.10   
    97. A(H  36,C   8,H  37)          107.79  0.000011   -0.01    107.78   
    98. A(C   5,C   8,C   9)          104.87  0.000006   -0.00    104.87   
    99. A(C   5,C   8,H  37)          112.44  0.000004    0.00    112.44   
   100. A(C   9,C   8,H  37)          113.01 -0.000007   -0.00    113.01   
   101. A(C   2,C   9,C  10)          112.96 -0.000000    0.00    112.97   
   102. A(C  10,C   9,H  38)          106.63 -0.000027    0.00    106.63   
   103. A(C   2,C   9,C   8)          102.65 -0.000007    0.00    102.65   
   104. A(C   8,C   9,H  38)          108.62  0.000011    0.00    108.62   
   105. A(C   2,C   9,H  38)          108.14  0.000021   -0.01    108.13   
   106. A(C   8,C   9,C  10)          117.51  0.000006   -0.00    117.50   
   107. A(C   9,C  10,H  39)          114.21  0.000011   -0.01    114.20   
   108. A(C  11,C  10,H  39)          119.13 -0.000003   -0.00    119.12   
   109. A(C   9,C  10,C  11)          126.66 -0.000008    0.01    126.67   
   110. A(H  40,C  11,H  41)          116.24  0.000021   -0.00    116.24   
   111. A(C  10,C  11,H  41)          122.85 -0.000024    0.01    122.86   
   112. A(C  10,C  11,H  40)          120.91  0.000003   -0.00    120.91   
   113. A(C   1,N  13,C  30)          113.17  0.000016   -0.00    113.16   
   114. A(C   1,N  13,C  14)          122.30 -0.000073    0.02    122.32   
   115. A(C  14,N  13,C  30)          123.92  0.000059   -0.02    123.89   
   116. A(N  13,C  14,C  15)          115.54  0.000035   -0.01    115.52   
   117. A(H  42,C  14,H  43)          107.94  0.000014   -0.00    107.94   
   118. A(C  15,C  14,H  43)          108.47 -0.000011    0.01    108.47   
   119. A(N  13,C  14,H  43)          107.01 -0.000013    0.02    107.03   
   120. A(C  15,C  14,H  42)          110.86 -0.000022   -0.00    110.86   
   121. A(N  13,C  14,H  42)          106.73 -0.000004   -0.01    106.73   
   122. A(H  44,C  15,H  45)          106.88 -0.000019    0.01    106.89   
   123. A(C  14,C  15,C  16)          117.14  0.000018   -0.03    117.12   
   124. A(C  16,C  15,H  45)          108.87  0.000031    0.00    108.87   
   125. A(C  14,C  15,H  45)          105.77 -0.000035    0.01    105.79   
   126. A(C  16,C  15,H  44)          108.51  0.000008   -0.00    108.50   
   127. A(C  14,C  15,H  44)          109.21 -0.000007    0.01    109.21   
   128. A(C  17,C  16,H  47)          109.19  0.000045   -0.02    109.17   
   129. A(H  46,C  16,H  47)          106.21 -0.000013    0.00    106.22   
   130. A(C  15,C  16,H  47)          107.84 -0.000000    0.01    107.84   
   131. A(C  17,C  16,H  46)          107.10  0.000016    0.00    107.11   
   132. A(C  15,C  16,H  46)          110.15  0.000030   -0.01    110.14   
   133. A(C  15,C  16,C  17)          115.93 -0.000073    0.01    115.95   
   134. A(C  16,C  17,O  18)          110.17 -0.000045    0.01    110.18   
   135. A(O  18,C  17,H  49)          109.86  0.000012    0.01    109.87   
   136. A(C  16,C  17,H  49)          110.39 -0.000003    0.01    110.40   
   137. A(O  18,C  17,H  48)          109.66  0.000011   -0.01    109.65   
   138. A(C  16,C  17,H  48)          109.50  0.000041   -0.01    109.48   
   139. A(H  48,C  17,H  49)          107.21 -0.000015   -0.00    107.20   
   140. A(C  17,O  18,C  19)          115.58  0.000010   -0.00    115.58   
   141. A(O  18,C  19,C  20)          112.17 -0.000008    0.01    112.18   
   142. A(C  28,C  19,H  50)          108.14  0.000012   -0.01    108.13   
   143. A(C  20,C  19,H  50)          109.04 -0.000012    0.01    109.05   
   144. A(O  18,C  19,H  50)          109.56  0.000006   -0.00    109.55   
   145. A(C  20,C  19,C  28)          108.88  0.000003    0.00    108.88   
   146. A(O  18,C  19,C  28)          108.98  0.000001   -0.01    108.97   
   147. A(O  21,C  20,C  22)          111.56 -0.000001    0.01    111.57   
   148. A(C  19,C  20,C  22)          109.21 -0.000003    0.01    109.22   
   149. A(C  19,C  20,O  21)          113.88 -0.000002   -0.00    113.88   
   150. A(O  21,C  20,H  51)          105.52  0.000015   -0.01    105.50   
   151. A(C  19,C  20,H  51)          108.33  0.000010   -0.01    108.32   
   152. A(C  22,C  20,H  51)          108.08 -0.000019    0.01    108.08   
   153. A(C  20,O  21,H  52)          113.35  0.000036   -0.01    113.35   
   154. A(O  25,C  22,H  53)          110.18  0.000004    0.00    110.18   
   155. A(C  23,C  22,H  53)          108.03 -0.000020    0.01    108.05   
   156. A(C  20,C  22,H  53)          109.33  0.000011   -0.00    109.32   
   157. A(C  23,C  22,O  25)          106.61  0.000008   -0.01    106.60   
   158. A(C  20,C  22,O  25)          109.23 -0.000004   -0.00    109.23   
   159. A(C  20,C  22,C  23)          113.42  0.000001    0.01    113.42   
   160. A(H  54,C  23,H  55)          107.66 -0.000005    0.00    107.66   
   161. A(C  22,C  23,H  55)          109.29  0.000030   -0.01    109.28   
   162. A(O  24,C  23,H  54)          107.28  0.000005   -0.00    107.28   
   163. A(C  22,C  23,H  54)          108.20 -0.000005   -0.00    108.19   
   164. A(O  24,C  23,H  55)          111.71 -0.000018    0.00    111.71   
   165. A(C  22,C  23,O  24)          112.51 -0.000006    0.01    112.52   
   166. A(C  23,O  24,H  56)          108.51 -0.000025    0.01    108.52   
   167. A(C  22,O  25,C  26)          114.69 -0.000005    0.01    114.70   
   168. A(C  28,C  26,H  57)          109.35 -0.000009    0.00    109.35   
   169. A(O  27,C  26,H  57)          110.42  0.000005   -0.00    110.42   
   170. A(O  25,C  26,H  57)          109.77  0.000009   -0.00    109.77   
   171. A(O  27,C  26,C  28)          111.51 -0.000006    0.00    111.51   
   172. A(O  25,C  26,C  28)          109.23  0.000004   -0.00    109.23   
   173. A(O  25,C  26,O  27)          106.51 -0.000002   -0.00    106.51   
   174. A(C  26,O  27,H  58)          108.01  0.000004    0.00    108.02   
   175. A(O  29,C  28,H  59)          110.48 -0.000003    0.00    110.48   
   176. A(C  26,C  28,H  59)          107.56  0.000002    0.00    107.56   
   177. A(C  19,C  28,H  59)          109.23 -0.000002    0.00    109.23   
   178. A(C  26,C  28,O  29)          107.44 -0.000000    0.00    107.44   
   179. A(C  19,C  28,O  29)          111.76 -0.000001   -0.00    111.76   
   180. A(C  19,C  28,C  26)          110.28  0.000004   -0.01    110.28   
   181. A(C  28,O  29,H  60)          108.68 -0.000014   -0.00    108.68   
   182. A(N  13,C  30,O  31)          125.27  0.000018   -0.00    125.27   
   183. A(C   4,C  30,O  31)          126.14 -0.000007    0.00    126.15   
   184. A(C   4,C  30,N  13)          108.58 -0.000010   -0.00    108.58   
   185. D(C   9,C   2,C   1,O   0)     59.74 -0.000006   -0.03     59.71   
   186. D(H   3,C   2,C   1,N  13)    115.61  0.000008   -0.04    115.57   
   187. D(H   3,C   2,C   1,O   0)    -63.73  0.000008   -0.04    -63.77   
   188. D(C   4,C   2,C   1,N  13)     -3.80 -0.000003   -0.02     -3.82   
   189. D(C   4,C   2,C   1,O   0)    176.86 -0.000003   -0.03    176.83   
   190. D(C   5,C   4,C   2,H   3)    125.11 -0.000011    0.04    125.15   
   191. D(H  12,C   4,C   2,H   3)      5.82 -0.000011    0.05      5.87   
   192. D(C   5,C   4,C   2,C   1)   -118.70  0.000019    0.01   -118.69   
   193. D(H  12,C   4,C   2,C   1)    122.01  0.000019    0.02    122.03   
   194. D(H  12,C   4,C   2,C   9)   -115.48  0.000005    0.03   -115.45   
   195. D(C   5,C   4,C   2,C   9)      3.81  0.000005    0.02      3.83   
   196. D(C   6,C   5,C   4,C  30)    -23.17  0.000000   -0.01    -23.18   
   197. D(C   8,C   5,C   4,C  30)   -143.78  0.000004   -0.02   -143.80   
   198. D(C   8,C   5,C   4,C   2)    -27.11 -0.000001   -0.01    -27.13   
   199. D(C   6,C   5,C   4,C   2)     93.50 -0.000005   -0.01     93.49   
   200. D(C   6,C   5,C   4,H  12)   -144.94 -0.000007   -0.01   -144.95   
   201. D(C   8,C   5,C   4,H  12)     94.44 -0.000003   -0.02     94.42   
   202. D(C   7,C   6,C   5,C   8)   -127.67  0.000002   -0.11   -127.77   
   203. D(H  33,C   6,C   5,C   4)    -64.32  0.000005   -0.10    -64.42   
   204. D(C   7,C   6,C   5,C   4)    117.46  0.000006   -0.11    117.35   
   205. D(C   7,C   6,C   5,H  32)     -5.22  0.000007   -0.11     -5.33   
   206. D(H  33,C   6,C   5,C   8)     50.55  0.000002   -0.10     50.45   
   207. D(H  35,C   7,C   6,C   5)     -1.65  0.000001   -0.00     -1.65   
   208. D(H  34,C   7,C   6,H  33)      0.10 -0.000000   -0.00      0.10   
   209. D(H  34,C   7,C   6,C   5)    178.29 -0.000001    0.01    178.30   
   210. D(H  35,C   7,C   6,H  33)   -179.84  0.000001   -0.01   -179.85   
   211. D(H  36,C   8,C   5,C   4)    -76.22  0.000002   -0.01    -76.23   
   212. D(H  36,C   8,C   5,C   6)    160.72  0.000024   -0.02    160.70   
   213. D(C   9,C   8,C   5,H  32)    157.44  0.000006   -0.01    157.43   
   214. D(C   9,C   8,C   5,C   6)    -81.98  0.000020   -0.01    -81.99   
   215. D(C   9,C   8,C   5,C   4)     41.08 -0.000002    0.00     41.08   
   216. D(H  36,C   8,C   5,H  32)     40.14  0.000009   -0.02     40.12   
   217. D(C  10,C   9,C   8,H  37)     73.57  0.000008    0.01     73.58   
   218. D(C  10,C   9,C   8,C   5)   -163.61  0.000013    0.01   -163.61   
   219. D(C   2,C   9,C   8,H  37)   -161.84  0.000006    0.01   -161.83   
   220. D(C   2,C   9,C   8,H  36)     77.95 -0.000003    0.01     77.96   
   221. D(C   2,C   9,C   8,C   5)    -39.02  0.000011    0.01    -39.02   
   222. D(C  10,C   9,C   2,C   4)    148.80 -0.000010   -0.02    148.79   
   223. D(C  10,C   9,C   2,C   1)    -95.57 -0.000017   -0.01    -95.58   
   224. D(C   8,C   9,C   2,C   4)     21.28 -0.000012   -0.02     21.26   
   225. D(C   8,C   9,C   2,H   3)   -101.17 -0.000009   -0.02   -101.19   
   226. D(C  10,C   9,C   8,H  36)    -46.64 -0.000001    0.01    -46.63   
   227. D(C   8,C   9,C   2,C   1)    136.91 -0.000019   -0.01    136.89   
   228. D(C  10,C   9,C   2,H   3)     26.36 -0.000007   -0.02     26.34   
   229. D(H  39,C  10,C   9,C   8)    174.91 -0.000001   -0.01    174.90   
   230. D(H  39,C  10,C   9,C   2)     55.65  0.000004   -0.01     55.64   
   231. D(C  11,C  10,C   9,H  38)    116.10 -0.000004   -0.00    116.10   
   232. D(C  11,C  10,C   9,C   8)     -5.99 -0.000002   -0.01     -5.99   
   233. D(C  11,C  10,C   9,C   2)   -125.25  0.000003   -0.01   -125.26   
   234. D(H  41,C  11,C  10,H  39)    179.28  0.000000   -0.00    179.28   
   235. D(H  41,C  11,C  10,C   9)      0.21  0.000001   -0.00      0.21   
   236. D(H  40,C  11,C  10,H  39)     -0.34 -0.000000   -0.00     -0.34   
   237. D(H  40,C  11,C  10,C   9)   -179.41  0.000000   -0.00   -179.41   
   238. D(C  30,N  13,C   1,C   2)     -0.07  0.000005    0.02     -0.05   
   239. D(C  30,N  13,C   1,O   0)    179.29  0.000005    0.02    179.32   
   240. D(C  14,N  13,C   1,C   2)   -171.38 -0.000011    0.02   -171.37   
   241. D(C  14,N  13,C   1,O   0)      7.98 -0.000011    0.02      8.00   
   242. D(H  43,C  14,N  13,C   1)     46.54 -0.000010    0.05     46.59   
   243. D(H  42,C  14,N  13,C  30)     -8.46 -0.000015    0.05     -8.41   
   244. D(H  42,C  14,N  13,C   1)    161.90 -0.000002    0.05    161.96   
   245. D(C  15,C  14,N  13,C  30)    115.30 -0.000022    0.03    115.33   
   246. D(C  15,C  14,N  13,C   1)    -74.34 -0.000009    0.04    -74.30   
   247. D(C  16,C  15,C  14,N  13)    -55.50 -0.000005    0.04    -55.46   
   248. D(H  44,C  15,C  14,H  43)    -51.79  0.000015   -0.00    -51.79   
   249. D(H  44,C  15,C  14,H  42)   -170.13  0.000018   -0.00   -170.14   
   250. D(H  44,C  15,C  14,N  13)     68.30  0.000014    0.02     68.32   
   251. D(C  16,C  15,C  14,H  43)   -175.59 -0.000004    0.02   -175.57   
   252. D(C  16,C  15,C  14,H  42)     66.07 -0.000001    0.02     66.08   
   253. D(H  46,C  16,C  15,H  45)   -167.21 -0.000002   -0.06   -167.27   
   254. D(H  46,C  16,C  15,H  44)    -51.24 -0.000004   -0.05    -51.28   
   255. D(H  46,C  16,C  15,C  14)     72.92  0.000007   -0.06     72.86   
   256. D(C  17,C  16,C  15,H  45)     71.00  0.000006   -0.07     70.93   
   257. D(C  17,C  16,C  15,H  44)   -173.02  0.000004   -0.05   -173.08   
   258. D(C  17,C  16,C  15,C  14)    -48.87  0.000015   -0.07    -48.94   
   259. D(H  48,C  17,C  16,H  47)    -53.00 -0.000021   -0.09    -53.09   
   260. D(H  48,C  17,C  16,H  46)     61.61 -0.000005   -0.09     61.52   
   261. D(H  48,C  17,C  16,C  15)   -175.00 -0.000004   -0.09   -175.09   
   262. D(O  18,C  17,C  16,H  47)     67.69 -0.000009   -0.11     67.58   
   263. D(O  18,C  17,C  16,H  46)   -177.70  0.000006   -0.11   -177.81   
   264. D(O  18,C  17,C  16,C  15)    -54.31  0.000008   -0.11    -54.42   
   265. D(C  19,O  18,C  17,H  49)     47.34  0.000021   -0.11     47.23   
   266. D(C  19,O  18,C  17,H  48)    -70.24  0.000025   -0.11    -70.35   
   267. D(C  19,O  18,C  17,C  16)    169.17 -0.000005   -0.09    169.08   
   268. D(H  50,C  19,O  18,C  17)      5.47 -0.000020    0.19      5.66   
   269. D(C  28,C  19,O  18,C  17)    123.60 -0.000001    0.17    123.77   
   270. D(C  20,C  19,O  18,C  17)   -115.76 -0.000002    0.17   -115.59   
   271. D(C  22,C  20,C  19,H  50)     63.43  0.000009   -0.01     63.42   
   272. D(C  22,C  20,C  19,C  28)    -54.35  0.000000   -0.00    -54.35   
   273. D(C  22,C  20,C  19,O  18)   -175.05  0.000002    0.00   -175.04   
   274. D(O  21,C  20,C  19,H  50)    -62.02  0.000014   -0.03    -62.05   
   275. D(O  21,C  20,C  19,C  28)   -179.80  0.000005   -0.02   -179.82   
   276. D(O  21,C  20,C  19,O  18)     59.51  0.000007   -0.02     59.49   
   277. D(H  52,O  21,C  20,H  51)    156.18 -0.000009    0.18    156.36   
   278. D(H  52,O  21,C  20,C  22)    -86.70 -0.000023    0.19    -86.51   
   279. D(H  52,O  21,C  20,C  19)     37.50 -0.000030    0.20     37.70   
   280. D(O  25,C  22,C  20,H  51)    -60.99  0.000002   -0.01    -61.00   
   281. D(O  25,C  22,C  20,O  21)   -176.55 -0.000004   -0.01   -176.56   
   282. D(O  25,C  22,C  20,C  19)     56.67  0.000001   -0.02     56.65   
   283. D(C  23,C  22,C  20,H  51)     57.76  0.000010   -0.03     57.74   
   284. D(C  23,C  22,C  20,O  21)    -57.80  0.000003   -0.02    -57.82   
   285. D(C  23,C  22,C  20,C  19)    175.42  0.000009   -0.03    175.39   
   286. D(H  54,C  23,C  22,H  53)     68.59  0.000006   -0.06     68.52   
   287. D(H  54,C  23,C  22,O  25)    -49.81  0.000008   -0.07    -49.88   
   288. D(H  54,C  23,C  22,C  20)   -170.06  0.000007   -0.06   -170.12   
   289. D(O  24,C  23,C  22,H  53)    -49.75  0.000007   -0.07    -49.81   
   290. D(O  24,C  23,C  22,O  25)   -168.15  0.000009   -0.07   -168.21   
   291. D(O  24,C  23,C  22,C  20)     71.60  0.000007   -0.06     71.54   
   292. D(H  56,O  24,C  23,H  55)     67.08  0.000005    0.05     67.13   
   293. D(H  56,O  24,C  23,H  54)   -175.15 -0.000009    0.05   -175.10   
   294. D(H  56,O  24,C  23,C  22)    -56.28 -0.000015    0.05    -56.23   
   295. D(C  26,O  25,C  22,H  53)     57.53  0.000014    0.01     57.54   
   296. D(C  26,O  25,C  22,C  23)    174.52 -0.000004    0.01    174.53   
   297. D(C  26,O  25,C  22,C  20)    -62.57  0.000000    0.01    -62.56   
   298. D(H  57,C  26,O  25,C  22)    -57.42  0.000004    0.00    -57.41   
   299. D(C  28,C  26,O  25,C  22)     62.47  0.000000    0.00     62.48   
   300. D(O  27,C  26,O  25,C  22)   -176.97 -0.000005    0.01   -176.97   
   301. D(H  58,O  27,C  26,H  57)     72.60 -0.000027    0.06     72.66   
   302. D(H  58,O  27,C  26,C  28)    -49.19 -0.000015    0.06    -49.13   
   303. D(H  58,O  27,C  26,O  25)   -168.27 -0.000016    0.06   -168.21   
   304. D(C  19,C  28,C  26,O  25)    -57.24 -0.000001   -0.01    -57.25   
   305. D(O  29,C  28,C  19,H  50)     55.94  0.000008   -0.00     55.93   
   306. D(O  29,C  28,C  19,C  20)    174.28  0.000002    0.00    174.28   
   307. D(O  29,C  28,C  19,O  18)    -63.09 -0.000006    0.02    -63.07   
   308. D(C  26,C  28,C  19,H  50)    -63.50  0.000007    0.00    -63.50   
   309. D(C  26,C  28,C  19,C  20)     54.84 -0.000000    0.01     54.85   
   310. D(C  19,C  28,C  26,O  27)   -174.69  0.000002   -0.01   -174.70   
   311. D(C  26,C  28,C  19,O  18)    177.47 -0.000008    0.02    177.49   
   312. D(O  29,C  28,C  26,H  57)    -59.12  0.000005   -0.01    -59.13   
   313. D(O  29,C  28,C  26,O  27)     63.28  0.000001   -0.00     63.28   
   314. D(O  29,C  28,C  26,O  25)   -179.27 -0.000002   -0.00   -179.27   
   315. D(C  19,C  28,C  26,H  57)     62.91  0.000007   -0.01     62.89   
   316. D(H  60,O  29,C  28,H  59)    -55.34  0.000005   -0.10    -55.45   
   317. D(H  60,O  29,C  28,C  26)   -172.40  0.000004   -0.11   -172.50   
   318. D(H  60,O  29,C  28,C  19)     66.50 -0.000000   -0.10     66.40   
   319. D(O  31,C  30,N  13,C   1)   -175.10 -0.000007   -0.03   -175.13   
   320. D(C   4,C  30,N  13,C  14)    175.20 -0.000003   -0.00    175.20   
   321. D(C   4,C  30,N  13,C   1)      4.05 -0.000006   -0.01      4.04   
   322. D(O  31,C  30,C   4,C   5)    -69.28 -0.000012    0.01    -69.26   
   323. D(O  31,C  30,C   4,C   2)    172.99  0.000004    0.01    173.00   
   324. D(N  13,C  30,C   4,H  12)   -125.82 -0.000008   -0.01   -125.82   
   325. D(N  13,C  30,C   4,C   5)    111.58 -0.000014   -0.00    111.58   
   326. D(O  31,C  30,N  13,C  14)     -3.95 -0.000004   -0.02     -3.97   
   327. D(N  13,C  30,C   4,C   2)     -6.16  0.000003   -0.01     -6.16   
    ----------------------------------------------------------------------------

Geometry step timings:
Preparation and reading OPT file:      0.003 s ( 8.495 %)
Internal coordinates            :      0.000 s ( 0.149 %)
B/P matrices and projection     :      0.011 s (38.755 %)
Hessian update/contruction      :      0.004 s (11.907 %)
Making the step                 :      0.007 s (24.542 %)
Converting the step to Cartesian:      0.001 s ( 3.115 %)
Storing new data                :      0.000 s ( 0.842 %)
Checking convergence            :      0.000 s ( 0.179 %)
Final printing                  :      0.004 s (12.009 %)
Total time                      :      0.030 s
                 *******************************************************
                 *** FINAL ENERGY EVALUATION AT THE STATIONARY POINT ***
                 ***               (AFTER   14 CYCLES)               ***
                 *******************************************************
---------------------------------
CARTESIAN COORDINATES (ANGSTROEM)
---------------------------------
  O     -2.726071    2.673343    1.759626
  C     -2.527954    1.512635    1.583132
  C     -3.547818    0.396649    1.646799
  H     -3.919527    0.352393    2.664053
  C     -2.761374   -0.864476    1.260667
  C     -3.424716   -1.425605   -0.034961
  C     -2.799774   -0.960758   -1.327706
  C     -2.221087   -1.757584   -2.204906
  C     -4.871212   -0.909393    0.114528
  C     -4.725251    0.523675    0.645363
  C     -5.944544    1.168949    1.250509
  C     -7.166455    0.673334    1.277638
  H     -2.796704   -1.625181    2.030344
  N     -1.290574    0.966238    1.294830
  C     -0.055450    1.753423    1.345290
  C      0.149133    2.733749    0.189045
  C      0.102879    2.158900   -1.230588
  C      0.949808    0.920626   -1.474492
  O      2.284765    1.163729   -1.099577
  C      3.115347    0.034327   -1.050530
  C      3.613765   -0.253394    0.363022
  O      2.586798   -0.485315    1.291487
  C      4.610800   -1.421724    0.319796
  C      5.255561   -1.718670    1.669465
  O      4.363760   -2.300024    2.571257
  O      5.657027   -1.105020   -0.564091
  C      5.266976   -0.919927   -1.879908
  O      6.417961   -0.689698   -2.600747
  C      4.314166    0.262552   -1.958116
  O      3.931064    0.405402   -3.299047
  C     -1.323373   -0.401775    1.150066
  O     -0.367923   -1.101617    0.981665
  H     -3.392123   -2.507568   -0.018738
  H     -2.861643    0.093050   -1.550203
  H     -1.813865   -1.379199   -3.125387
  H     -2.132065   -2.817301   -2.039299
  H     -5.391827   -1.518202    0.848544
  H     -5.427515   -0.962595   -0.814081
  H     -4.406298    1.166397   -0.172558
  H     -5.762110    2.139417    1.683558
  H     -7.974546    1.220711    1.728535
  H     -7.417853   -0.282558    0.853960
  H      0.757695    1.050655    1.400161
  H     -0.074605    2.314066    2.270919
  H     -0.583346    3.529173    0.262072
  H      1.121985    3.185063    0.353353
  H     -0.919840    1.904798   -1.498416
  H      0.410546    2.942551   -1.917236
  H      0.908482    0.654483   -2.529120
  H      0.558982    0.081260   -0.917558
  H      2.571664   -0.834138   -1.419265
  H      4.138358    0.623261    0.724324
  H      1.856640   -0.977738    0.931043
  H      4.096049   -2.323154   -0.014302
  H      6.058509   -2.424663    1.511789
  H      5.692649   -0.804967    2.067750
  H      3.612614   -1.727024    2.664350
  H      4.761895   -1.816307   -2.244892
  H      6.167533   -0.379956   -3.463045
  H      4.855317    1.142255   -1.621609
  H      3.430217    1.205786   -3.388249

----------------------------
CARTESIAN COORDINATES (A.U.)
----------------------------
  NO LB      ZA    FRAG     MASS         X           Y           Z
   0 O     8.0000    0    15.999   -5.151527    5.051886    3.325211
   1 C     6.0000    0    12.011   -4.777142    2.858467    2.991686
   2 C     6.0000    0    12.011   -6.704404    0.749557    3.111999
   3 H     1.0000    0     1.008   -7.406832    0.665927    5.034330
   4 C     6.0000    0    12.011   -5.218240   -1.633624    2.382316
   5 C     6.0000    0    12.011   -6.471775   -2.694003   -0.066067
   6 C     6.0000    0    12.011   -5.290806   -1.815569   -2.509001
   7 C     6.0000    0    12.011   -4.197246   -3.321353   -4.166669
   8 C     6.0000    0    12.011   -9.205257   -1.718503    0.216426
   9 C     6.0000    0    12.011   -8.929430    0.989603    1.219559
  10 C     6.0000    0    12.011  -11.233561    2.208993    2.363119
  11 C     6.0000    0    12.011  -13.542637    1.272417    2.414386
  12 H     1.0000    0     1.008   -5.285004   -3.071147    3.836794
  13 N     7.0000    0    14.007   -2.438831    1.825924    2.446874
  14 C     6.0000    0    12.011   -0.104786    3.313490    2.542230
  15 C     6.0000    0    12.011    0.281821    5.166036    0.357243
  16 C     6.0000    0    12.011    0.194412    4.079729   -2.325475
  17 C     6.0000    0    12.011    1.794877    1.739730   -2.786387
  18 O     8.0000    0    15.999    4.317580    2.199129   -2.077900
  19 C     6.0000    0    12.011    5.887152    0.064868   -1.985214
  20 C     6.0000    0    12.011    6.829026   -0.478846    0.686011
  21 O     8.0000    0    15.999    4.888340   -0.917113    2.440558
  22 C     6.0000    0    12.011    8.713149   -2.686669    0.604327
  23 C     6.0000    0    12.011    9.931572   -3.247815    3.154831
  24 O     8.0000    0    15.999    8.246311   -4.346415    4.858971
  25 O     8.0000    0    15.999   10.690232   -2.088184   -1.065978
  26 C     6.0000    0    12.011    9.953142   -1.738411   -3.552512
  27 O     8.0000    0    15.999   12.128188   -1.303341   -4.914699
  28 C     6.0000    0    12.011    8.152591    0.496152   -3.700302
  29 O     8.0000    0    15.999    7.428634    0.766099   -6.234296
  30 C     6.0000    0    12.011   -2.500812   -0.759244    2.173310
  31 O     8.0000    0    15.999   -0.695273   -2.081755    1.855077
  32 H     1.0000    0     1.008   -6.410184   -4.738617   -0.035409
  33 H     1.0000    0     1.008   -5.407721    0.175839   -2.929459
  34 H     1.0000    0     1.008   -3.427709   -2.606309   -5.906126
  35 H     1.0000    0     1.008   -4.029019   -5.323927   -3.853717
  36 H     1.0000    0     1.008  -10.189077   -2.868986    1.603517
  37 H     1.0000    0     1.008  -10.256518   -1.819041   -1.538389
  38 H     1.0000    0     1.008   -8.326697    2.204171   -0.326088
  39 H     1.0000    0     1.008  -10.888811    4.042912    3.181463
  40 H     1.0000    0     1.008  -15.069709    2.306809    3.266458
  41 H     1.0000    0     1.008  -14.017711   -0.533957    1.613750
  42 H     1.0000    0     1.008    1.431836    1.985450    2.645921
  43 H     1.0000    0     1.008   -0.140983    4.372951    4.291415
  44 H     1.0000    0     1.008   -1.102363    6.669171    0.495245
  45 H     1.0000    0     1.008    2.120244    6.018897    0.667741
  46 H     1.0000    0     1.008   -1.738246    3.599546   -2.831596
  47 H     1.0000    0     1.008    0.775819    5.560615   -3.623051
  48 H     1.0000    0     1.008    1.716783    1.236793   -4.779345
  49 H     1.0000    0     1.008    1.056324    0.153559   -1.733934
  50 H     1.0000    0     1.008    4.859741   -1.576292   -2.682022
  51 H     1.0000    0     1.008    7.820364    1.177793    1.368774
  52 H     1.0000    0     1.008    3.508542   -1.847657    1.759417
  53 H     1.0000    0     1.008    7.740411   -4.390124   -0.027026
  54 H     1.0000    0     1.008   11.448923   -4.581949    2.856866
  55 H     1.0000    0     1.008   10.757547   -1.521168    3.907481
  56 H     1.0000    0     1.008    6.826851   -3.263603    5.034893
  57 H     1.0000    0     1.008    8.998677   -3.432322   -4.242231
  58 H     1.0000    0     1.008   11.654948   -0.718012   -6.544207
  59 H     1.0000    0     1.008    9.175220    2.158549   -3.064398
  60 H     1.0000    0     1.008    6.482170    2.278606   -6.402863

--------------------------------
INTERNAL COORDINATES (ANGSTROEM)
--------------------------------
 O      0   0   0     0.000000000000     0.00000000     0.00000000
 C      1   0   0     1.190647724735     0.00000000     0.00000000
 C      2   1   0     1.513142934406   126.91260758     0.00000000
 H      3   2   1     1.083942601710   107.50147945   296.22710682
 C      3   2   1     1.535587193461   104.47391784   176.83246957
 C      5   3   2     1.559981107085   106.64722395   241.31037959
 C      6   5   3     1.509246640747   115.12134202    93.49495307
 C      7   6   5     1.318821788611   124.42490240   117.35440888
 C      6   5   3     1.543105182570   101.40910552   332.87318319
 C      9   6   5     1.535178946506   104.87137602    41.07889374
 C     10   9   6     1.506404879334   117.50401231   196.39269909
 C     11  10   9     1.318876100407   126.66902640   354.00594284
 H      5   3   2     1.082738017834   112.42908115   122.03209502
 N      2   1   3     1.383032649051   124.39590370   180.75275553
 C     14   2   1     1.465516239509   122.31999032     8.00208692
 C     15  14   2     1.529638851294   115.52714809   285.70079115
 C     16  15  14     1.532302327889   117.11935624   304.53205625
 C     17  16  15     1.519901839476   115.94406902   311.06194400
 O     18  17  16     1.407753301310   110.18077704   305.57959721
 C     19  18  17     1.402790717170   115.57885068   169.08468243
 C     20  19  18     1.526214922414   112.18030243   244.40785811
 O     21  20  19     1.403743804151   113.88019905    59.49135998
 C     21  20  19     1.536535929590   109.21995959   184.95658453
 C     23  21  20     1.524958830621   113.42294834   175.38740615
 O     24  23  21     1.395174544250   112.51635348    71.54401987
 O     23  21  20     1.405755878897   109.22715059    56.64801346
 C     26  23  21     1.384837240547   114.70295607   297.43929772
 O     27  26  23     1.377454233157   106.51217641   183.03487968
 C     27  26  23     1.520599089435   109.22586252    62.47506381
 O     29  27  26     1.401880976678   107.43791177   180.72834637
 C     14   2   1     1.376041366799   113.16447255   179.31449910
 O     31  14   2     1.196254000404   125.26697786   184.87251251
 H      6   5   3     1.082575609453   109.52697085   215.32866139
 H      7   6   5     1.078815765186   116.98579729   295.57700547
 H      8   7   6     1.075308982195   121.52919250   178.29331198
 H      8   7   6     1.076266884990   121.92795607   358.34995511
 H      9   6   5     1.086494088114   109.09691135   283.77158003
 H      9   6   5     1.083797658494   112.44089060   164.25733717
 H     10   9   6     1.088033555274   108.62431109    75.32872726
 H     11  10   9     1.078249240881   114.20018076   174.89984910
 H     12  11  10     1.075147325856   120.90781938   180.59078617
 H     12  11  10     1.075376088279   122.85518218     0.21155260
 H     15  14   2     1.076150611767   106.72631354   161.95830913
 H     15  14   2     1.082346981654   107.02341671    46.59282466
 H     16  15  14     1.083770449286   109.21083834    68.31543454
 H     16  15  14     1.084952608420   105.78606917   183.03782184
 H     17  16  15     1.087314680183   110.13747180    72.85672931
 H     17  16  15     1.086394568910   107.84299985   188.35680676
 H     18  17  16     1.088476209550   109.48321899   184.91203882
 H     18  17  16     1.080488303407   110.40323712    67.11783702
 H     20  19  18     1.088938263872   109.55090795     5.65555551
 H     21  20  19     1.083633987449   108.32389299   302.45483196
 H     22  21  20     0.951593469349   113.34781284    37.69639578
 H     23  21  20     1.090488359087   109.32109814   296.02653258
 H     24  23  21     1.080746437736   108.19207608   189.88125471
 H     24  23  21     1.088360519972   109.28147476   306.83961630
 H     25  24  23     0.949323457087   108.52040579   303.77237333
 H     27  26  23     1.091703207914   109.76906413   302.58665636
 H     28  27  26     0.949848741012   108.01572439   191.78856265
 H     29  27  26     1.086258985488   107.55830256    61.77452762
 H     30  29  27     0.948377400207   108.68021104   187.49529350

---------------------------
INTERNAL COORDINATES (A.U.)
---------------------------
 O      0   0   0     0.000000000000     0.00000000     0.00000000
 C      1   0   0     2.249998121725     0.00000000     0.00000000
 C      2   1   0     2.859425747506   126.91260758     0.00000000
 H      3   2   1     2.048354662121   107.50147945   296.22710682
 C      3   2   1     2.901839250398   104.47391784   176.83246957
 C      5   3   2     2.947937066482   106.64722395   241.31037959
 C      6   5   3     2.852062819553   115.12134202    93.49495307
 C      7   6   5     2.492211999922   124.42490240   117.35440888
 C      6   5   3     2.916046190893   101.40910552   332.87318319
 C      9   6   5     2.901067775458   104.87137602    41.07889374
 C     10   9   6     2.846692668744   117.50401231   196.39269909
 C     11  10   9     2.492314634342   126.66902640   354.00594284
 H      5   3   2     2.046078328491   112.42908115   122.03209502
 N      2   1   3     2.613552940978   124.39590370   180.75275553
 C     14   2   1     2.769424337487   122.31999032     8.00208692
 C     15  14   2     2.890598512751   115.52714809   285.70079115
 C     16  15  14     2.895631754081   117.11935624   304.53205625
 C     17  16  15     2.872198227053   115.94406902   311.06194400
 O     18  17  16     2.660268203599   110.18077704   305.57959721
 C     19  18  17     2.650890278657   115.57885068   169.08468243
 C     20  19  18     2.884128224867   112.18030243   244.40785811
 O     21  20  19     2.652691352035   113.88019905    59.49135998
 C     21  20  19     2.903632101856   109.21995959   184.95658453
 C     23  21  20     2.881754555379   113.42294834   175.38740615
 O     24  23  21     2.636497797651   112.51635348    71.54401987
 O     23  21  20     2.656493622265   109.22715059    56.64801346
 C     26  23  21     2.616963124689   114.70295607   297.43929772
 O     27  26  23     2.603011262677   106.51217641   183.03487968
 C     27  26  23     2.873515838523   109.22586252    62.47506381
 O     29  27  26     2.649171118276   107.43791177   180.72834637
 C     14   2   1     2.600341332197   113.16447255   179.31449910
 O     31  14   2     2.260592447371   125.26697786   184.87251251
 H      6   5   3     2.045771421130   109.52697085   215.32866139
 H      7   6   5     2.038666345158   116.98579729   295.57700547
 H      8   7   6     2.032039485694   121.52919250   178.29331198
 H      8   7   6     2.033849659640   121.92795607   358.34995511
 H      9   6   5     2.053176272660   109.09691135   283.77158003
 H      9   6   5     2.048080759139   112.44089060   164.25733717
 H     10   9   6     2.056085443985   108.62431109    75.32872726
 H     11  10   9     2.037595769374   114.20018076   174.89984910
 H     12  11  10     2.031733999485   120.90781938   180.59078617
 H     12  11  10     2.032166297816   122.85518218     0.21155260
 H     15  14   2     2.033629935091   106.72631354   161.95830913
 H     15  14   2     2.045339377203   107.02341671    46.59282466
 H     16  15  14     2.048029341188   109.21083834    68.31543454
 H     16  15  14     2.050263298198   105.78606917   183.03782184
 H     17  16  15     2.054726966939   110.13747180    72.85672931
 H     17  16  15     2.052988208620   107.84299985   188.35680676
 H     18  17  16     2.056921939339   109.48321899   184.91203882
 H     18  17  16     2.041826984344   110.40323712    67.11783702
 H     20  19  18     2.057795095465   109.55090795     5.65555551
 H     21  20  19     2.047771465687   108.32389299   302.45483196
 H     22  21  20     1.798251047898   113.34781284    37.69639578
 H     23  21  20     2.060724350904   109.32109814   296.02653258
 H     24  23  21     2.042314787532   108.19207608   189.88125471
 H     24  23  21     2.056703317719   109.28147476   306.83961630
 H     25  24  23     1.793961346401   108.52040579   303.77237333
 H     27  26  23     2.063020082480   109.76906413   302.58665636
 H     28  27  26     1.794953989162   108.01572439   191.78856265
 H     29  27  26     2.052731993084   107.55830256    61.77452762
 H     30  29  27     1.792173557992   108.68021104   187.49529350

---------------------
BASIS SET INFORMATION
---------------------
There are 4 groups of distinct atoms

 Group   1 Type O   : 10s4p1d contracted to 3s2p1d pattern {631/31/1}
 Group   2 Type C   : 10s4p1d contracted to 3s2p1d pattern {631/31/1}
 Group   3 Type H   : 4s contracted to 2s pattern {31}
 Group   4 Type N   : 10s4p1d contracted to 3s2p1d pattern {631/31/1}

Atom   0O    basis set group =>   1
Atom   1C    basis set group =>   2
Atom   2C    basis set group =>   2
Atom   3H    basis set group =>   3
Atom   4C    basis set group =>   2
Atom   5C    basis set group =>   2
Atom   6C    basis set group =>   2
Atom   7C    basis set group =>   2
Atom   8C    basis set group =>   2
Atom   9C    basis set group =>   2
Atom  10C    basis set group =>   2
Atom  11C    basis set group =>   2
Atom  12H    basis set group =>   3
Atom  13N    basis set group =>   4
Atom  14C    basis set group =>   2
Atom  15C    basis set group =>   2
Atom  16C    basis set group =>   2
Atom  17C    basis set group =>   2
Atom  18O    basis set group =>   1
Atom  19C    basis set group =>   2
Atom  20C    basis set group =>   2
Atom  21O    basis set group =>   1
Atom  22C    basis set group =>   2
Atom  23C    basis set group =>   2
Atom  24O    basis set group =>   1
Atom  25O    basis set group =>   1
Atom  26C    basis set group =>   2
Atom  27O    basis set group =>   1
Atom  28C    basis set group =>   2
Atom  29O    basis set group =>   1
Atom  30C    basis set group =>   2
Atom  31O    basis set group =>   1
Atom  32H    basis set group =>   3
Atom  33H    basis set group =>   3
Atom  34H    basis set group =>   3
Atom  35H    basis set group =>   3
Atom  36H    basis set group =>   3
Atom  37H    basis set group =>   3
Atom  38H    basis set group =>   3
Atom  39H    basis set group =>   3
Atom  40H    basis set group =>   3
Atom  41H    basis set group =>   3
Atom  42H    basis set group =>   3
Atom  43H    basis set group =>   3
Atom  44H    basis set group =>   3
Atom  45H    basis set group =>   3
Atom  46H    basis set group =>   3
Atom  47H    basis set group =>   3
Atom  48H    basis set group =>   3
Atom  49H    basis set group =>   3
Atom  50H    basis set group =>   3
Atom  51H    basis set group =>   3
Atom  52H    basis set group =>   3
Atom  53H    basis set group =>   3
Atom  54H    basis set group =>   3
Atom  55H    basis set group =>   3
Atom  56H    basis set group =>   3
Atom  57H    basis set group =>   3
Atom  58H    basis set group =>   3
Atom  59H    basis set group =>   3
Atom  60H    basis set group =>   3
------------------------------------------------------------------------------
                             ORCA STARTUP CALCULATIONS
------------------------------------------------------------------------------
------------------------------------------------------------------------------
                   ___                                                        
                  /   \      - P O W E R E D   B Y -                         
                 /     \                                                     
                 |  |  |   _    _      __       _____    __    __             
                 |  |  |  | |  | |    /  \     |  _  \  |  |  /  |          
                  \  \/   | |  | |   /    \    | | | |  |  | /  /          
                 / \  \   | |__| |  /  /\  \   | |_| |  |  |/  /          
                |  |  |   |  __  | /  /__\  \  |    /   |      \           
                |  |  |   | |  | | |   __   |  |    \   |  |\   \          
                \     /   | |  | | |  |  |  |  | |\  \  |  | \   \       
                 \___/    |_|  |_| |__|  |__|  |_| \__\ |__|  \__/        
                                                                              
                      - O R C A' S   B I G   F R I E N D -                    
                                      &                                       
                       - I N T E G R A L  F E E D E R -                       
                                                                              
 v1 FN, 2020, v2 2021, v3 2022-2024                                           
------------------------------------------------------------------------------


----------------------
SHARK INTEGRAL PACKAGE
----------------------

Number of atoms                             ...     61
Number of basis functions                   ...    482
Number of shells                            ...    242
Maximum angular momentum                    ...      2
Integral batch strategy                     ... SHARK/LIBINT Hybrid
RI-J (if used) integral strategy            ... SPLIT-RIJ (Revised 2003 algorithm where possible)
Printlevel                                  ...      1
Contraction scheme used                     ... SEGMENTED contraction
Prescreening option                         ... SCHWARTZ
   Thresh                                   ... 2.500e-11
   Tcut                                     ... 2.500e-12
   Tpresel                                  ... 2.500e-12 
Coulomb Range Separation                    ... NOT USED
Exchange Range Separation                   ... NOT USED
Multipole approximations                    ... NOT USED
Finite Nucleus Model                        ... NOT USED
CABS basis                                  ... NOT available
Auxiliary Coulomb fitting basis             ... NOT available
Auxiliary J/K fitting basis                 ... NOT available
Auxiliary Correlation fitting basis         ... NOT available
Auxiliary 'external' fitting basis          ... NOT available

Checking pre-screening integrals            ... done (  0.0 sec) Dimension = 242
Check shell pair data                       ... done (  0.0 sec)
Shell pair information
Shell pair cut-off parameter TPreSel        ...   2.5e-12
Total number of shell pairs                 ...     29403
Shell pairs after pre-screening             ...     18253
Total number of primitive shell pairs       ...    165748
Primitive shell pairs kept                  ...     54340
          la=0 lb=0:   6942 shell pairs
          la=1 lb=0:   6123 shell pairs
          la=1 lb=1:   1357 shell pairs
          la=2 lb=0:   2462 shell pairs
          la=2 lb=1:   1136 shell pairs
          la=2 lb=2:    233 shell pairs

Calculating one electron integrals          ... done (  0.2 sec)
Calculating Nuclear repulsion               ... done (  0.0 sec) ENN=   3220.306592239865 Eh

Diagonalization of the overlap matrix:
Smallest eigenvalue                        ... 1.174e-03
Time for diagonalization                   ...    0.022 sec
Threshold for overlap eigenvalues          ... 1.000e-07
Number of eigenvalues below threshold      ... 0
Time for construction of square roots      ...    0.011 sec
Total time needed                          ...    0.034 sec

-------------------
DFT GRID GENERATION
-------------------

General Integration Accuracy     IntAcc      ... 4.388
Radial Grid Type                 RadialGrid  ... OptM3 with GC (2021)
Angular Grid (max. ang.)         AngularGrid ... 4 (Lebedev-302)
Angular grid pruning method      GridPruning ... 4 (adaptive)
Weight generation scheme         WeightScheme... mBecke (2022)
Basis function cutoff            BFCut       ... 1.0000e-11
Integration weight cutoff        WCut        ... 1.0000e-14
Partially contracted basis set               ... off
Rotationally invariant grid construction     ... off
Angular grids for H and He will be reduced by one unit

Total number of grid points                  ...   276058
Total number of batches                      ...     4344
Average number of points per batch           ...       63
Average number of grid points per atom       ...     4526
Initializing property integral containers    ... done (  0.0 sec)

SHARK setup successfully completed in   4.6 seconds

Maximum memory used throughout the entire STARTUP-calculation: 121.6 MB
-------------------------------------------------------------------------------
                                 ORCA GUESS
                   Start orbitals & Density for SCF / CASSCF
-------------------------------------------------------------------------------

------------
SCF SETTINGS
------------
Hamiltonian:
 Ab initio Hamiltonian  Method          .... Hartree-Fock(GTOs)


General Settings:
 Integral files         IntName         .... monomer_hf_opt
 Hartree-Fock type      HFTyp           .... RHF
 Total Charge           Charge          ....    0
 Multiplicity           Mult            ....    1
 Number of Electrons    NEL             ....  228
 Basis Dimension        Dim             ....  482
 Nuclear Repulsion      ENuc            ....   3220.3065922399 Eh

Convergence Acceleration:
 AO-DIIS                CNVDIIS         .... on
   Start iteration      DIISMaxIt       ....    12
   Startup error        DIISStart       ....  0.200000
   # of expansion vecs  DIISMaxEq       ....     5
   Bias factor          DIISBfac        ....   1.050
   Max. coefficient     DIISMaxC        ....  10.000
 MO-DIIS                CNVKDIIS        .... off
 Trust-Rad. Augm. Hess. CNVTRAH         .... auto
   Auto Start mean grad. ratio tolernc. ....  1.125000
   Auto Start start iteration           ....     1
   Auto Start num. interpolation iter.  ....    10
   Max. Number of Micro iterations      ....    24
   Max. Number of Macro iterations      .... Maxiter - #DIIS iter
   Number of Davidson start vectors     ....     2
   Converg. threshold    (grad. norm)   ....   1.000e-05
   Grad. Scal. Fac. for Micro threshold ....   0.100
   Minimum threshold for Micro iter.    ....   1.000e-02
   NR start threshold (gradient norm)   ....   1.000e-04
   Initial trust radius                 ....   0.400
   Minimum AH scaling param. (alpha)    ....   1.000
   Maximum AH scaling param. (alpha)    .... 1000.000
   Quad. conv. algorithm                .... NR
   White noise on init. David. guess    .... on
   Maximum white noise                  ....   0.010
   Pseudo random numbers                .... off
   Inactive MOs                         .... canonical
   Orbital update algorithm             .... Taylor
   Preconditioner                       .... Diag
   Full preconditioner red. dimension   ....   250
 SOSCF                  CNVSOSCF        .... on
   Start iteration      SOSCFMaxIt      ....   150
   Startup grad/error   SOSCFStart      ....  0.003300
   Hessian update       SOSCFHessUp     .... L-BFGS
 Level Shifting         CNVShift        .... on
   Level shift para.    LevelShift      ....    0.2500
   Turn off err/grad.   ShiftErr        ....    0.0010
 Zerner damping         CNVZerner       .... off
 Static damping         CNVDamp         .... on
   Fraction old density DampFac         ....    0.7000
   Max. Damping (<1)    DampMax         ....    0.9800
   Min. Damping (>=0)   DampMin         ....    0.0000
   Turn off err/grad.   DampErr         ....    0.1000

SCF Procedure:
 Maximum # iterations   MaxIter         ....   125
 SCF integral mode      SCFMode         .... Direct
   Integral package                     .... SHARK and LIBINT hybrid scheme
 Reset frequency        DirectResetFreq ....    20
 Integral Threshold     Thresh          ....  2.500e-11 Eh
 Primitive CutOff       TCut            ....  2.500e-12 Eh

Convergence Tolerance:
 Convergence Check Mode ConvCheckMode   .... Total+1el-Energy
 Convergence forced     ConvForced      .... 0
 Energy Change          TolE            ....  1.000e-08 Eh
 1-El. energy change                    ....  1.000e-05 Eh
 Orbital Gradient       TolG            ....  1.000e-05
 Orbital Rotation angle TolX            ....  1.000e-05
 DIIS Error             TolErr          ....  5.000e-07

---------------------
INITIAL GUESS: MOREAD
---------------------
Guess MOs are being read from file: monomer_hf_opt.gbw
Input Geometry matches current geometry (good)
Input basis set matches current basis set (good)
Occupation numbers will be reassigned to an Aufbau configuration
MOs were renormalized
MOs were reorthogonalized (Cholesky)
                      ------------------
                      INITIAL GUESS DONE (   0.1 sec)
                      ------------------
             **** ENERGY FILE WAS UPDATED (monomer_hf_opt.en.tmp) ****
Finished Guess after   0.2 sec
Maximum memory used throughout the entire GUESS-calculation: 46.2 MB

-------------------------------------------------------------------------------------------
                                      ORCA LEAN-SCF
                              memory conserving SCF solver
-------------------------------------------------------------------------------------------

----------------------------------------D-I-I-S--------------------------------------------
Iteration    Energy (Eh)           Delta-E    RMSDP     MaxDP     DIISErr   Damp  Time(sec)
-------------------------------------------------------------------------------------------
               ***  Starting incremental Fock matrix formation  ***
                              *** Initializing SOSCF ***
---------------------------------------S-O-S-C-F--------------------------------------
Iteration    Energy (Eh)           Delta-E    RMSDP     MaxDP     MaxGrad    Time(sec)
--------------------------------------------------------------------------------------
    1    -1466.5862589075386495     0.00e+00  9.61e-06  6.20e-04  4.14e-05    51.5
               *** Restarting incremental Fock matrix formation ***
    2    -1466.5862675217849755    -8.61e-06  5.18e-06  2.34e-04  1.02e-04    51.1
    3    -1466.5862692729770060    -1.75e-06  3.34e-06  1.39e-04  5.02e-05    30.4
    4    -1466.5862695802134112    -3.07e-07  5.05e-07  3.09e-05  9.84e-06    28.5
    5    -1466.5862695856249047    -5.41e-09  4.01e-07  2.23e-05  4.34e-06    23.2
                 **** Energy Check signals convergence ****

               *****************************************************
               *                     SUCCESS                       *
               *           SCF CONVERGED AFTER   5 CYCLES          *
               *****************************************************

             **** ENERGY FILE WAS UPDATED (monomer_hf_opt.en.tmp) ****

----------------
TOTAL SCF ENERGY
----------------

Total Energy       :      -1466.58626958562490 Eh          -39907.84127 eV

Components:
Nuclear Repulsion  :       3220.30659223986459 Eh           87628.99735 eV
Electronic Energy  :      -4686.89286182548949 Eh         -127536.83862 eV
One Electron Energy:      -8415.36983095583309 Eh         -228993.85492 eV
Two Electron Energy:       3728.47696913034360 Eh          101457.01631 eV

Virial components:
Potential Energy   :      -2933.26422183858267 Eh          -79818.17735 eV
Kinetic Energy     :       1466.67795225295754 Eh           39910.33608 eV
Virial Ratio       :          1.99993748957146

---------------
SCF CONVERGENCE
---------------

  Last Energy change         ...    5.4115e-09  Tolerance :   1.0000e-08
  Last MAX-Density change    ...    2.2296e-05  Tolerance :   1.0000e-07
  Last RMS-Density change    ...    4.0088e-07  Tolerance :   5.0000e-09
  Last DIIS Error            ...    1.1759e-03  Tolerance :   5.0000e-07
  Last Orbital Gradient      ...    4.3368e-06  Tolerance :   1.0000e-05
  Last Orbital Rotation      ...    1.4736e-05  Tolerance :   1.0000e-05


----------------
ORBITAL ENERGIES
----------------

  NO   OCC          E(Eh)            E(eV) 
   0   2.0000     -20.576108      -559.9044 
   1   2.0000     -20.572958      -559.8187 
   2   2.0000     -20.570923      -559.7633 
   3   2.0000     -20.568227      -559.6899 
   4   2.0000     -20.566643      -559.6468 
   5   2.0000     -20.562241      -559.5270 
   6   2.0000     -20.558158      -559.4159 
   7   2.0000     -20.535066      -558.7875 
   8   2.0000     -15.626428      -425.2167 
   9   2.0000     -11.383038      -309.7482 
  10   2.0000     -11.375964      -309.5557 
  11   2.0000     -11.332174      -308.3641 
  12   2.0000     -11.288677      -307.1805 
  13   2.0000     -11.284156      -307.0575 
  14   2.0000     -11.280515      -306.9584 
  15   2.0000     -11.278849      -306.9131 
  16   2.0000     -11.278424      -306.9015 
  17   2.0000     -11.266356      -306.5731 
  18   2.0000     -11.264082      -306.5113 
  19   2.0000     -11.262421      -306.4660 
  20   2.0000     -11.260774      -306.4212 
  21   2.0000     -11.258646      -306.3633 
  22   2.0000     -11.258614      -306.3625 
  23   2.0000     -11.249118      -306.1041 
  24   2.0000     -11.242472      -305.9232 
  25   2.0000     -11.241576      -305.8988 
  26   2.0000     -11.238143      -305.8054 
  27   2.0000     -11.229688      -305.5753 
  28   2.0000     -11.228224      -305.5355 
  29   2.0000     -11.224535      -305.4351 
  30   2.0000      -1.441864       -39.2351 
  31   2.0000      -1.437178       -39.1076 
  32   2.0000      -1.420676       -38.6586 
  33   2.0000      -1.406524       -38.2735 
  34   2.0000      -1.388335       -37.7785 
  35   2.0000      -1.375052       -37.4171 
  36   2.0000      -1.354614       -36.8609 
  37   2.0000      -1.347218       -36.6597 
  38   2.0000      -1.292156       -35.1613 
  39   2.0000      -1.181880       -32.1606 
  40   2.0000      -1.100630       -29.9497 
  41   2.0000      -1.092062       -29.7165 
  42   2.0000      -1.076876       -29.3033 
  43   2.0000      -1.054693       -28.6996 
  44   2.0000      -1.038206       -28.2510 
  45   2.0000      -1.020693       -27.7745 
  46   2.0000      -0.992233       -27.0000 
  47   2.0000      -0.982298       -26.7297 
  48   2.0000      -0.930230       -25.3129 
  49   2.0000      -0.907527       -24.6951 
  50   2.0000      -0.903280       -24.5795 
  51   2.0000      -0.871527       -23.7155 
  52   2.0000      -0.855278       -23.2733 
  53   2.0000      -0.846129       -23.0243 
  54   2.0000      -0.833527       -22.6814 
  55   2.0000      -0.824230       -22.4284 
  56   2.0000      -0.810795       -22.0629 
  57   2.0000      -0.785129       -21.3644 
  58   2.0000      -0.763936       -20.7877 
  59   2.0000      -0.745974       -20.2990 
  60   2.0000      -0.742684       -20.2095 
  61   2.0000      -0.730583       -19.8802 
  62   2.0000      -0.712648       -19.3921 
  63   2.0000      -0.705160       -19.1884 
  64   2.0000      -0.699524       -19.0350 
  65   2.0000      -0.694032       -18.8856 
  66   2.0000      -0.689960       -18.7748 
  67   2.0000      -0.677073       -18.4241 
  68   2.0000      -0.671091       -18.2613 
  69   2.0000      -0.665039       -18.0966 
  70   2.0000      -0.658720       -17.9247 
  71   2.0000      -0.657690       -17.8966 
  72   2.0000      -0.647887       -17.6299 
  73   2.0000      -0.640113       -17.4184 
  74   2.0000      -0.633698       -17.2438 
  75   2.0000      -0.632564       -17.2130 
  76   2.0000      -0.620416       -16.8824 
  77   2.0000      -0.618182       -16.8216 
  78   2.0000      -0.608750       -16.5649 
  79   2.0000      -0.601261       -16.3611 
  80   2.0000      -0.598091       -16.2749 
  81   2.0000      -0.594526       -16.1779 
  82   2.0000      -0.584275       -15.8989 
  83   2.0000      -0.579142       -15.7593 
  84   2.0000      -0.574977       -15.6459 
  85   2.0000      -0.568967       -15.4824 
  86   2.0000      -0.565650       -15.3921 
  87   2.0000      -0.562674       -15.3111 
  88   2.0000      -0.551006       -14.9936 
  89   2.0000      -0.545833       -14.8529 
  90   2.0000      -0.536538       -14.5999 
  91   2.0000      -0.531719       -14.4688 
  92   2.0000      -0.526543       -14.3280 
  93   2.0000      -0.516873       -14.0648 
  94   2.0000      -0.509215       -13.8565 
  95   2.0000      -0.507334       -13.8053 
  96   2.0000      -0.504566       -13.7299 
  97   2.0000      -0.501309       -13.6413 
  98   2.0000      -0.496459       -13.5093 
  99   2.0000      -0.486873       -13.2485 
 100   2.0000      -0.485326       -13.2064 
 101   2.0000      -0.482798       -13.1376 
 102   2.0000      -0.475218       -12.9314 
 103   2.0000      -0.469017       -12.7626 
 104   2.0000      -0.466186       -12.6856 
 105   2.0000      -0.448385       -12.2012 
 106   2.0000      -0.446138       -12.1400 
 107   2.0000      -0.430650       -11.7186 
 108   2.0000      -0.428651       -11.6642 
 109   2.0000      -0.415725       -11.3125 
 110   2.0000      -0.408284       -11.1100 
 111   2.0000      -0.401593       -10.9279 
 112   2.0000      -0.381054       -10.3690 
 113   2.0000      -0.375326       -10.2131 
 114   0.0000       0.139223         3.7884 
 115   0.0000       0.158710         4.3187 
 116   0.0000       0.169570         4.6142 
 117   0.0000       0.175964         4.7882 
 118   0.0000       0.194460         5.2915 
 119   0.0000       0.210014         5.7148 
 120   0.0000       0.222531         6.0554 
 121   0.0000       0.229478         6.2444 
 122   0.0000       0.234844         6.3904 
 123   0.0000       0.248099         6.7511 
 124   0.0000       0.255089         6.9413 
*Only the first 10 virtual orbitals were printed.

                    ********************************
                    * MULLIKEN POPULATION ANALYSIS *
                    ********************************

-----------------------
MULLIKEN ATOMIC CHARGES
-----------------------
   0 O :   -0.581582
   1 C :    0.822676
   2 C :   -0.308889
   3 H :    0.240050
   4 C :   -0.302995
   5 C :   -0.208502
   6 C :   -0.143803
   7 C :   -0.390267
   8 C :   -0.328759
   9 C :   -0.210066
  10 C :   -0.121985
  11 C :   -0.414107
  12 H :    0.237159
  13 N :   -0.780084
  14 C :   -0.164923
  15 C :   -0.330921
  16 C :   -0.352075
  17 C :   -0.001382
  18 O :   -0.706174
  19 C :    0.128669
  20 C :    0.200106
  21 O :   -0.843622
  22 C :    0.117667
  23 C :    0.034609
  24 O :   -0.802797
  25 O :   -0.690968
  26 C :    0.581971
  27 O :   -0.792900
  28 C :    0.126647
  29 O :   -0.820645
  30 C :    0.849724
  31 O :   -0.625600
  32 H :    0.205028
  33 H :    0.190980
  34 H :    0.186302
  35 H :    0.188254
  36 H :    0.182487
  37 H :    0.197232
  38 H :    0.200362
  39 H :    0.214585
  40 H :    0.188547
  41 H :    0.180493
  42 H :    0.261175
  43 H :    0.205962
  44 H :    0.199546
  45 H :    0.190644
  46 H :    0.161524
  47 H :    0.176582
  48 H :    0.149231
  49 H :    0.185351
  50 H :    0.166165
  51 H :    0.191117
  52 H :    0.500573
  53 H :    0.164008
  54 H :    0.191527
  55 H :    0.150792
  56 H :    0.483851
  57 H :    0.141623
  58 H :    0.470045
  59 H :    0.188766
  60 H :    0.471013
Sum of atomic charges:    0.0000000

--------------------------------
MULLIKEN REDUCED ORBITAL CHARGES
--------------------------------
  0 O s       :     3.883160  s :     3.883160
      pz      :     1.464453  p :     4.664792
      px      :     1.814898
      py      :     1.385442
      dz2     :     0.003210  d :     0.033630
      dxz     :     0.000517
      dyz     :     0.013015
      dx2y2   :     0.009052
      dxy     :     0.007836

  1 C s       :     2.925224  s :     2.925224
      pz      :     0.645211  p :     2.116908
      px      :     0.718574
      py      :     0.753123
      dz2     :     0.009456  d :     0.135192
      dxz     :     0.012371
      dyz     :     0.026168
      dx2y2   :     0.033636
      dxy     :     0.053561

  2 C s       :     3.259168  s :     3.259168
      pz      :     1.122345  p :     2.996297
      px      :     0.963892
      py      :     0.910061
      dz2     :     0.015044  d :     0.053423
      dxz     :     0.010601
      dyz     :     0.004380
      dx2y2   :     0.006446
      dxy     :     0.016953

  3 H s       :     0.759950  s :     0.759950

  4 C s       :     3.255576  s :     3.255576
      pz      :     1.069615  p :     2.994324
      px      :     0.903822
      py      :     1.020887
      dz2     :     0.009906  d :     0.053096
      dxz     :     0.005776
      dyz     :     0.014483
      dx2y2   :     0.012695
      dxy     :     0.010237

  5 C s       :     3.253183  s :     3.253183
      pz      :     0.896072  p :     2.898721
      px      :     0.912391
      py      :     1.090258
      dz2     :     0.014843  d :     0.056599
      dxz     :     0.011943
      dyz     :     0.007209
      dx2y2   :     0.016024
      dxy     :     0.006581

  6 C s       :     3.170010  s :     3.170010
      pz      :     0.926459  p :     2.925723
      px      :     0.960421
      py      :     1.038844
      dz2     :     0.012820  d :     0.048070
      dxz     :     0.007536
      dyz     :     0.010834
      dx2y2   :     0.012154
      dxy     :     0.004727

  7 C s       :     3.266024  s :     3.266024
      pz      :     1.033968  p :     3.081566
      px      :     0.994435
      py      :     1.053162
      dz2     :     0.011253  d :     0.042677
      dxz     :     0.006395
      dyz     :     0.009875
      dx2y2   :     0.010449
      dxy     :     0.004704

  8 C s       :     3.277717  s :     3.277717
      pz      :     1.108017  p :     2.998746
      px      :     0.953493
      py      :     0.937235
      dz2     :     0.008584  d :     0.052296
      dxz     :     0.013537
      dyz     :     0.010187
      dx2y2   :     0.011746
      dxy     :     0.008242

  9 C s       :     3.243348  s :     3.243348
      pz      :     0.984773  p :     2.909457
      px      :     0.944658
      py      :     0.980027
      dz2     :     0.006265  d :     0.057260
      dxz     :     0.014682
      dyz     :     0.014426
      dx2y2   :     0.012550
      dxy     :     0.009337

 10 C s       :     3.175112  s :     3.175112
      pz      :     0.961366  p :     2.898538
      px      :     0.908068
      py      :     1.029104
      dz2     :     0.002998  d :     0.048334
      dxz     :     0.011435
      dyz     :     0.006375
      dx2y2   :     0.015516
      dxy     :     0.012011

 11 C s       :     3.263252  s :     3.263252
      pz      :     1.038383  p :     3.108464
      px      :     1.011125
      py      :     1.058955
      dz2     :     0.002370  d :     0.042391
      dxz     :     0.009754
      dyz     :     0.005788
      dx2y2   :     0.011944
      dxy     :     0.012534

 12 H s       :     0.762841  s :     0.762841

 13 N s       :     3.615195  s :     3.615195
      pz      :     1.660702  p :     4.122053
      px      :     1.239514
      py      :     1.221837
      dz2     :     0.003584  d :     0.042836
      dxz     :     0.005641
      dyz     :     0.004628
      dx2y2   :     0.016829
      dxy     :     0.012153

 14 C s       :     3.241204  s :     3.241204
      pz      :     1.039466  p :     2.857821
      px      :     0.824406
      py      :     0.993950
      dz2     :     0.015250  d :     0.065898
      dxz     :     0.005292
      dyz     :     0.016270
      dx2y2   :     0.006441
      dxy     :     0.022644

 15 C s       :     3.276585  s :     3.276585
      pz      :     0.888960  p :     3.001864
      px      :     1.103722
      py      :     1.009182
      dz2     :     0.015219  d :     0.052472
      dxz     :     0.003871
      dyz     :     0.012463
      dx2y2   :     0.005551
      dxy     :     0.015368

 16 C s       :     3.282111  s :     3.282111
      pz      :     0.994492  p :     3.017434
      px      :     1.029452
      py      :     0.993490
      dz2     :     0.011265  d :     0.052530
      dxz     :     0.006026
      dyz     :     0.014483
      dx2y2   :     0.010278
      dxy     :     0.010477

 17 C s       :     3.192568  s :     3.192568
      pz      :     1.043354  p :     2.726686
      px      :     0.657795
      py      :     1.025536
      dz2     :     0.019791  d :     0.082128
      dxz     :     0.013809
      dyz     :     0.011515
      dx2y2   :     0.019735
      dxy     :     0.017278

 18 O s       :     3.891916  s :     3.891916
      pz      :     1.871363  p :     4.784135
      px      :     1.339923
      py      :     1.572849
      dz2     :     0.004446  d :     0.030124
      dxz     :     0.004201
      dyz     :     0.002794
      dx2y2   :     0.008473
      dxy     :     0.010211

 19 C s       :     3.137696  s :     3.137696
      pz      :     0.957810  p :     2.649199
      px      :     0.889388
      py      :     0.802000
      dz2     :     0.015114  d :     0.084436
      dxz     :     0.017208
      dyz     :     0.013210
      dx2y2   :     0.013632
      dxy     :     0.025272

 20 C s       :     3.122186  s :     3.122186
      pz      :     0.810291  p :     2.593601
      px      :     0.784720
      py      :     0.998590
      dz2     :     0.018681  d :     0.084107
      dxz     :     0.021950
      dyz     :     0.010729
      dx2y2   :     0.010389
      dxy     :     0.022357

 21 O s       :     3.898418  s :     3.898418
      pz      :     1.663140  p :     4.915828
      px      :     1.449809
      py      :     1.802880
      dz2     :     0.004435  d :     0.029375
      dxz     :     0.012031
      dyz     :     0.004629
      dx2y2   :     0.001791
      dxy     :     0.006490

 22 C s       :     3.146719  s :     3.146719
      pz      :     0.875002  p :     2.651868
      px      :     0.800467
      py      :     0.976400
      dz2     :     0.016164  d :     0.083746
      dxz     :     0.021915
      dyz     :     0.010768
      dx2y2   :     0.010035
      dxy     :     0.024865

 23 C s       :     3.182137  s :     3.182137
      pz      :     0.790261  p :     2.700976
      px      :     0.883224
      py      :     1.027491
      dz2     :     0.019517  d :     0.082278
      dxz     :     0.018705
      dyz     :     0.012853
      dx2y2   :     0.008002
      dxy     :     0.023202

 24 O s       :     3.879753  s :     3.879753
      pz      :     1.732118  p :     4.891769
      px      :     1.452315
      py      :     1.707336
      dz2     :     0.005939  d :     0.031275
      dxz     :     0.003701
      dyz     :     0.005606
      dx2y2   :     0.001737
      dxy     :     0.014291

 25 O s       :     3.893080  s :     3.893080
      pz      :     1.306240  p :     4.766227
      px      :     1.589952
      py      :     1.870035
      dz2     :     0.007435  d :     0.031660
      dxz     :     0.011166
      dyz     :     0.003530
      dx2y2   :     0.005451
      dxy     :     0.004078

 26 C s       :     2.996644  s :     2.996644
      pz      :     0.625256  p :     2.300286
      px      :     0.743030
      py      :     0.932001
      dz2     :     0.030912  d :     0.121098
      dxz     :     0.027582
      dyz     :     0.017989
      dx2y2   :     0.014367
      dxy     :     0.030248

 27 O s       :     3.897647  s :     3.897647
      pz      :     1.421489  p :     4.863553
      px      :     1.562522
      py      :     1.879543
      dz2     :     0.006876  d :     0.031700
      dxz     :     0.010226
      dyz     :     0.003210
      dx2y2   :     0.006921
      dxy     :     0.004468

 28 C s       :     3.136994  s :     3.136994
      pz      :     0.664036  p :     2.652710
      px      :     0.946078
      py      :     1.042596
      dz2     :     0.025182  d :     0.083649
      dxz     :     0.021835
      dyz     :     0.012153
      dx2y2   :     0.007155
      dxy     :     0.017325

 29 O s       :     3.896424  s :     3.896424
      pz      :     1.488444  p :     4.893664
      px      :     1.780578
      py      :     1.624641
      dz2     :     0.013481  d :     0.030557
      dxz     :     0.003309
      dyz     :     0.002585
      dx2y2   :     0.002982
      dxy     :     0.008200

 30 C s       :     2.922467  s :     2.922467
      pz      :     0.624748  p :     2.092331
      px      :     0.805707
      py      :     0.661876
      dz2     :     0.008663  d :     0.135477
      dxz     :     0.016568
      dyz     :     0.022632
      dx2y2   :     0.057917
      dxy     :     0.029696

 31 O s       :     3.889401  s :     3.889401
      pz      :     1.487710  p :     4.704826
      px      :     1.531182
      py      :     1.685933
      dz2     :     0.002989  d :     0.031374
      dxz     :     0.007834
      dyz     :     0.004733
      dx2y2   :     0.006674
      dxy     :     0.009144

 32 H s       :     0.794972  s :     0.794972

 33 H s       :     0.809020  s :     0.809020

 34 H s       :     0.813698  s :     0.813698

 35 H s       :     0.811746  s :     0.811746

 36 H s       :     0.817513  s :     0.817513

 37 H s       :     0.802768  s :     0.802768

 38 H s       :     0.799638  s :     0.799638

 39 H s       :     0.785415  s :     0.785415

 40 H s       :     0.811453  s :     0.811453

 41 H s       :     0.819507  s :     0.819507

 42 H s       :     0.738825  s :     0.738825

 43 H s       :     0.794038  s :     0.794038

 44 H s       :     0.800454  s :     0.800454

 45 H s       :     0.809356  s :     0.809356

 46 H s       :     0.838476  s :     0.838476

 47 H s       :     0.823418  s :     0.823418

 48 H s       :     0.850769  s :     0.850769

 49 H s       :     0.814649  s :     0.814649

 50 H s       :     0.833835  s :     0.833835

 51 H s       :     0.808883  s :     0.808883

 52 H s       :     0.499427  s :     0.499427

 53 H s       :     0.835992  s :     0.835992

 54 H s       :     0.808473  s :     0.808473

 55 H s       :     0.849208  s :     0.849208

 56 H s       :     0.516149  s :     0.516149

 57 H s       :     0.858377  s :     0.858377

 58 H s       :     0.529955  s :     0.529955

 59 H s       :     0.811234  s :     0.811234

 60 H s       :     0.528987  s :     0.528987



                     *******************************
                     * LOEWDIN POPULATION ANALYSIS *
                     *******************************

----------------------
LOEWDIN ATOMIC CHARGES
----------------------
   0 O :   -0.286413
   1 C :    0.203031
   2 C :   -0.140633
   3 H :    0.157603
   4 C :   -0.138719
   5 C :   -0.106448
   6 C :   -0.145576
   7 C :   -0.262789
   8 C :   -0.220350
   9 C :   -0.112371
  10 C :   -0.128978
  11 C :   -0.283629
  12 H :    0.156695
  13 N :   -0.117402
  14 C :   -0.140001
  15 C :   -0.236230
  16 C :   -0.238974
  17 C :   -0.079431
  18 O :   -0.299440
  19 C :   -0.009663
  20 C :   -0.007131
  21 O :   -0.444919
  22 C :   -0.010698
  23 C :   -0.071147
  24 O :   -0.465188
  25 O :   -0.259332
  26 C :    0.121725
  27 O :   -0.418058
  28 C :   -0.024034
  29 O :   -0.453202
  30 C :    0.213485
  31 O :   -0.310999
  32 H :    0.137070
  33 H :    0.129438
  34 H :    0.136908
  35 H :    0.136441
  36 H :    0.128093
  37 H :    0.134236
  38 H :    0.133935
  39 H :    0.144918
  40 H :    0.138259
  41 H :    0.131214
  42 H :    0.159452
  43 H :    0.141174
  44 H :    0.136824
  45 H :    0.137074
  46 H :    0.120506
  47 H :    0.128322
  48 H :    0.104810
  49 H :    0.118549
  50 H :    0.115580
  51 H :    0.130404
  52 H :    0.337929
  53 H :    0.110693
  54 H :    0.133074
  55 H :    0.107425
  56 H :    0.329257
  57 H :    0.093855
  58 H :    0.340400
  59 H :    0.125135
  60 H :    0.338237

-------------------------------
LOEWDIN REDUCED ORBITAL CHARGES
-------------------------------
  0 O s       :     3.533354  s :     3.533354
      pz      :     1.443117  p :     4.693433
      px      :     1.773493
      py      :     1.476823
      dz2     :     0.007034  d :     0.059626
      dxz     :     0.000877
      dyz     :     0.015526
      dx2y2   :     0.021184
      dxy     :     0.015006

  1 C s       :     2.832334  s :     2.832334
      pz      :     0.702907  p :     2.666059
      px      :     0.935657
      py      :     1.027495
      dz2     :     0.020017  d :     0.298576
      dxz     :     0.026594
      dyz     :     0.052058
      dx2y2   :     0.075724
      dxy     :     0.124183

  2 C s       :     2.901063  s :     2.901063
      pz      :     1.099158  p :     3.136111
      px      :     1.028315
      py      :     1.008638
      dz2     :     0.026067  d :     0.103459
      dxz     :     0.020208
      dyz     :     0.008735
      dx2y2   :     0.014078
      dxy     :     0.034371

  3 H s       :     0.842397  s :     0.842397

  4 C s       :     2.901660  s :     2.901660
      pz      :     1.076995  p :     3.134150
      px      :     1.001874
      py      :     1.055282
      dz2     :     0.018106  d :     0.102908
      dxz     :     0.012014
      dyz     :     0.025756
      dx2y2   :     0.025436
      dxy     :     0.021596

  5 C s       :     2.892459  s :     2.892459
      pz      :     1.002718  p :     3.103731
      px      :     1.015180
      py      :     1.085832
      dz2     :     0.030061  d :     0.110258
      dxz     :     0.024713
      dyz     :     0.014331
      dx2y2   :     0.028434
      dxy     :     0.012718

  6 C s       :     2.926127  s :     2.926127
      pz      :     1.039029  p :     3.124511
      px      :     0.987862
      py      :     1.097621
      dz2     :     0.026051  d :     0.094938
      dxz     :     0.015812
      dyz     :     0.022636
      dx2y2   :     0.020944
      dxy     :     0.009496

  7 C s       :     2.973372  s :     2.973372
      pz      :     1.083784  p :     3.211889
      px      :     1.019723
      py      :     1.108381
      dz2     :     0.020741  d :     0.077528
      dxz     :     0.011534
      dyz     :     0.018927
      dx2y2   :     0.017309
      dxy     :     0.009017

  8 C s       :     2.934691  s :     2.934691
      pz      :     1.107789  p :     3.191009
      px      :     1.041865
      py      :     1.041355
      dz2     :     0.014157  d :     0.094649
      dxz     :     0.022500
      dyz     :     0.017815
      dx2y2   :     0.023309
      dxy     :     0.016868

  9 C s       :     2.888792  s :     2.888792
      pz      :     1.045685  p :     3.112281
      px      :     1.016433
      py      :     1.050162
      dz2     :     0.012284  d :     0.111298
      dxz     :     0.028510
      dyz     :     0.026548
      dx2y2   :     0.025639
      dxy     :     0.018318

 10 C s       :     2.924031  s :     2.924031
      pz      :     0.973852  p :     3.109048
      px      :     1.070858
      py      :     1.064338
      dz2     :     0.006360  d :     0.095899
      dxz     :     0.021465
      dyz     :     0.009596
      dx2y2   :     0.032130
      dxy     :     0.026348

 11 C s       :     2.969958  s :     2.969958
      pz      :     1.041567  p :     3.236709
      px      :     1.104792
      py      :     1.090350
      dz2     :     0.004397  d :     0.076962
      dxz     :     0.015937
      dyz     :     0.007849
      dx2y2   :     0.023930
      dxy     :     0.024848

 12 H s       :     0.843305  s :     0.843305

 13 N s       :     3.088039  s :     3.088039
      pz      :     1.546307  p :     3.931138
      px      :     1.197364
      py      :     1.187467
      dz2     :     0.007292  d :     0.098224
      dxz     :     0.011434
      dyz     :     0.009196
      dx2y2   :     0.040314
      dxy     :     0.029988

 14 C s       :     2.913693  s :     2.913693
      pz      :     1.098365  p :     3.100503
      px      :     0.946229
      py      :     1.055908
      dz2     :     0.026494  d :     0.125806
      dxz     :     0.012355
      dyz     :     0.029487
      dx2y2   :     0.014180
      dxy     :     0.043290

 15 C s       :     2.928585  s :     2.928585
      pz      :     1.019025  p :     3.212549
      px      :     1.118541
      py      :     1.074983
      dz2     :     0.029424  d :     0.095096
      dxz     :     0.007794
      dyz     :     0.024720
      dx2y2   :     0.008986
      dxy     :     0.024172

 16 C s       :     2.928356  s :     2.928356
      pz      :     1.067305  p :     3.215450
      px      :     1.079869
      py      :     1.068276
      dz2     :     0.020839  d :     0.095168
      dxz     :     0.011089
      dyz     :     0.026721
      dx2y2   :     0.017770
      dxy     :     0.018749

 17 C s       :     2.916699  s :     2.916699
      pz      :     1.086071  p :     3.001917
      px      :     0.824398
      py      :     1.091447
      dz2     :     0.035383  d :     0.160815
      dxz     :     0.029462
      dyz     :     0.019007
      dx2y2   :     0.039869
      dxy     :     0.037094

 18 O s       :     3.466706  s :     3.466706
      pz      :     1.839909  p :     4.768811
      px      :     1.337094
      py      :     1.591809
      dz2     :     0.008002  d :     0.063923
      dxz     :     0.010432
      dyz     :     0.005720
      dx2y2   :     0.018703
      dxy     :     0.021066

 19 C s       :     2.882949  s :     2.882949
      pz      :     1.045759  p :     2.951747
      px      :     0.978209
      py      :     0.927780
      dz2     :     0.030504  d :     0.174966
      dxz     :     0.036205
      dyz     :     0.027132
      dx2y2   :     0.029794
      dxy     :     0.051331

 20 C s       :     2.884553  s :     2.884553
      pz      :     0.957906  p :     2.948651
      px      :     0.924685
      py      :     1.066059
      dz2     :     0.040182  d :     0.173927
      dxz     :     0.047017
      dyz     :     0.021670
      dx2y2   :     0.021064
      dxy     :     0.043994

 21 O s       :     3.525008  s :     3.525008
      pz      :     1.661700  p :     4.870385
      px      :     1.425695
      py      :     1.782990
      dz2     :     0.008913  d :     0.049526
      dxz     :     0.017977
      dyz     :     0.006362
      dx2y2   :     0.004767
      dxy     :     0.011506

 22 C s       :     2.892819  s :     2.892819
      pz      :     0.961320  p :     2.946086
      px      :     0.932675
      py      :     1.052091
      dz2     :     0.033610  d :     0.171792
      dxz     :     0.045839
      dyz     :     0.021195
      dx2y2   :     0.021008
      dxy     :     0.050140

 23 C s       :     2.912373  s :     2.912373
      pz      :     0.936466  p :     2.996551
      px      :     0.984586
      py      :     1.075498
      dz2     :     0.041042  d :     0.162223
      dxz     :     0.037811
      dyz     :     0.025785
      dx2y2   :     0.014862
      dxy     :     0.042723

 24 O s       :     3.532947  s :     3.532947
      pz      :     1.723359  p :     4.880712
      px      :     1.446721
      py      :     1.710632
      dz2     :     0.009784  d :     0.051529
      dxz     :     0.008057
      dyz     :     0.008336
      dx2y2   :     0.004956
      dxy     :     0.020395

 25 O s       :     3.461110  s :     3.461110
      pz      :     1.298135  p :     4.732156
      px      :     1.597301
      py      :     1.836720
      dz2     :     0.018863  d :     0.066066
      dxz     :     0.021913
      dyz     :     0.010014
      dx2y2   :     0.007891
      dxy     :     0.007385

 26 C s       :     2.854971  s :     2.854971
      pz      :     0.807441  p :     2.767926
      px      :     0.915257
      py      :     1.045229
      dz2     :     0.067678  d :     0.255378
      dxz     :     0.059539
      dyz     :     0.037165
      dx2y2   :     0.028902
      dxy     :     0.062094

 27 O s       :     3.526123  s :     3.526123
      pz      :     1.399421  p :     4.840023
      px      :     1.581169
      py      :     1.859433
      dz2     :     0.012671  d :     0.051913
      dxz     :     0.015298
      dyz     :     0.005708
      dx2y2   :     0.010388
      dxy     :     0.007848

 28 C s       :     2.889845  s :     2.889845
      pz      :     0.846605  p :     2.960252
      px      :     1.029237
      py      :     1.084409
      dz2     :     0.054724  d :     0.173938
      dxz     :     0.047597
      dyz     :     0.025357
      dx2y2   :     0.013932
      dxy     :     0.032329

 29 O s       :     3.531085  s :     3.531085
      pz      :     1.508043  p :     4.870742
      px      :     1.756665
      py      :     1.606034
      dz2     :     0.020815  d :     0.051375
      dxz     :     0.007958
      dyz     :     0.007391
      dx2y2   :     0.003849
      dxy     :     0.011361

 30 C s       :     2.832446  s :     2.832446
      pz      :     0.683821  p :     2.655941
      px      :     1.031917
      py      :     0.940203
      dz2     :     0.018579  d :     0.298128
      dxz     :     0.032256
      dyz     :     0.046610
      dx2y2   :     0.133408
      dxy     :     0.067275

 31 O s       :     3.530576  s :     3.530576
      pz      :     1.466025  p :     4.723414
      px      :     1.575861
      py      :     1.681528
      dz2     :     0.006748  d :     0.057008
      dxz     :     0.009308
      dyz     :     0.005827
      dx2y2   :     0.014403
      dxy     :     0.020721

 32 H s       :     0.862930  s :     0.862930

 33 H s       :     0.870562  s :     0.870562

 34 H s       :     0.863092  s :     0.863092

 35 H s       :     0.863559  s :     0.863559

 36 H s       :     0.871907  s :     0.871907

 37 H s       :     0.865764  s :     0.865764

 38 H s       :     0.866065  s :     0.866065

 39 H s       :     0.855082  s :     0.855082

 40 H s       :     0.861741  s :     0.861741

 41 H s       :     0.868786  s :     0.868786

 42 H s       :     0.840548  s :     0.840548

 43 H s       :     0.858826  s :     0.858826

 44 H s       :     0.863176  s :     0.863176

 45 H s       :     0.862926  s :     0.862926

 46 H s       :     0.879494  s :     0.879494

 47 H s       :     0.871678  s :     0.871678

 48 H s       :     0.895190  s :     0.895190

 49 H s       :     0.881451  s :     0.881451

 50 H s       :     0.884420  s :     0.884420

 51 H s       :     0.869596  s :     0.869596

 52 H s       :     0.662071  s :     0.662071

 53 H s       :     0.889307  s :     0.889307

 54 H s       :     0.866926  s :     0.866926

 55 H s       :     0.892575  s :     0.892575

 56 H s       :     0.670743  s :     0.670743

 57 H s       :     0.906145  s :     0.906145

 58 H s       :     0.659600  s :     0.659600

 59 H s       :     0.874865  s :     0.874865

 60 H s       :     0.661763  s :     0.661763



                      *****************************
                      * MAYER POPULATION ANALYSIS *
                      *****************************

  NA   - Mulliken gross atomic population
  ZA   - Total nuclear charge
  QA   - Mulliken gross atomic charge
  VA   - Mayer's total valence
  BVA  - Mayer's bonded valence
  FA   - Mayer's free valence

  ATOM       NA         ZA         QA         VA         BVA        FA
  0 O      8.5816     8.0000    -0.5816     1.9184     1.9184     0.0000
  1 C      5.1773     6.0000     0.8227     3.7093     3.7093    -0.0000
  2 C      6.3089     6.0000    -0.3089     3.6539     3.6539     0.0000
  3 H      0.7600     1.0000     0.2400     0.9122     0.9122    -0.0000
  4 C      6.3030     6.0000    -0.3030     3.6851     3.6851    -0.0000
  5 C      6.2085     6.0000    -0.2085     3.7862     3.7862     0.0000
  6 C      6.1438     6.0000    -0.1438     3.8043     3.8043     0.0000
  7 C      6.3903     6.0000    -0.3903     3.8828     3.8828    -0.0000
  8 C      6.3288     6.0000    -0.3288     3.7277     3.7277     0.0000
  9 C      6.2101     6.0000    -0.2101     3.7805     3.7805     0.0000
 10 C      6.1220     6.0000    -0.1220     3.8230     3.8230     0.0000
 11 C      6.4141     6.0000    -0.4141     3.8670     3.8670     0.0000
 12 H      0.7628     1.0000     0.2372     0.9111     0.9111     0.0000
 13 N      7.7801     7.0000    -0.7801     2.7563     2.7563     0.0000
 14 C      6.1649     6.0000    -0.1649     3.6062     3.6062     0.0000
 15 C      6.3309     6.0000    -0.3309     3.7477     3.7477     0.0000
 16 C      6.3521     6.0000    -0.3521     3.7890     3.7890     0.0000
 17 C      6.0014     6.0000    -0.0014     3.6512     3.6512     0.0000
 18 O      8.7062     8.0000    -0.7062     1.6243     1.6243     0.0000
 19 C      5.8713     6.0000     0.1287     3.6482     3.6482     0.0000
 20 C      5.7999     6.0000     0.2001     3.5963     3.5963     0.0000
 21 O      8.8436     8.0000    -0.8436     1.5869     1.5869     0.0000
 22 C      5.8823     6.0000     0.1177     3.6027     3.6027     0.0000
 23 C      5.9654     6.0000     0.0346     3.7179     3.7179    -0.0000
 24 O      8.8028     8.0000    -0.8028     1.5938     1.5938    -0.0000
 25 O      8.6910     8.0000    -0.6910     1.6535     1.6535     0.0000
 26 C      5.4180     6.0000     0.5820     3.5865     3.5865     0.0000
 27 O      8.7929     8.0000    -0.7929     1.6285     1.6285     0.0000
 28 C      5.8734     6.0000     0.1266     3.6367     3.6367     0.0000
 29 O      8.8206     8.0000    -0.8206     1.5844     1.5844     0.0000
 30 C      5.1503     6.0000     0.8497     3.6712     3.6712    -0.0000
 31 O      8.6256     8.0000    -0.6256     1.8727     1.8727    -0.0000
 32 H      0.7950     1.0000     0.2050     0.9211     0.9211     0.0000
 33 H      0.8090     1.0000     0.1910     0.9295     0.9295     0.0000
 34 H      0.8137     1.0000     0.1863     0.9344     0.9344    -0.0000
 35 H      0.8117     1.0000     0.1883     0.9337     0.9337    -0.0000
 36 H      0.8175     1.0000     0.1825     0.9254     0.9254    -0.0000
 37 H      0.8028     1.0000     0.1972     0.9261     0.9261     0.0000
 38 H      0.7996     1.0000     0.2004     0.9144     0.9144     0.0000
 39 H      0.7854     1.0000     0.2146     0.9231     0.9231     0.0000
 40 H      0.8115     1.0000     0.1885     0.9340     0.9340     0.0000
 41 H      0.8195     1.0000     0.1805     0.9340     0.9340     0.0000
 42 H      0.7388     1.0000     0.2612     0.9144     0.9144    -0.0000
 43 H      0.7940     1.0000     0.2060     0.9200     0.9200     0.0000
 44 H      0.8005     1.0000     0.1995     0.9216     0.9216    -0.0000
 45 H      0.8094     1.0000     0.1906     0.9215     0.9215     0.0000
 46 H      0.8385     1.0000     0.1615     0.9274     0.9274     0.0000
 47 H      0.8234     1.0000     0.1766     0.9237     0.9237     0.0000
 48 H      0.8508     1.0000     0.1492     0.9280     0.9280     0.0000
 49 H      0.8146     1.0000     0.1854     0.9285     0.9285     0.0000
 50 H      0.8338     1.0000     0.1662     0.9329     0.9329    -0.0000
 51 H      0.8089     1.0000     0.1911     0.9242     0.9242     0.0000
 52 H      0.4994     1.0000     0.5006     0.7288     0.7288    -0.0000
 53 H      0.8360     1.0000     0.1640     0.9289     0.9289    -0.0000
 54 H      0.8085     1.0000     0.1915     0.9246     0.9246     0.0000
 55 H      0.8492     1.0000     0.1508     0.9269     0.9269    -0.0000
 56 H      0.5161     1.0000     0.4839     0.7474     0.7474     0.0000
 57 H      0.8584     1.0000     0.1416     0.9305     0.9305     0.0000
 58 H      0.5300     1.0000     0.4700     0.7562     0.7562     0.0000
 59 H      0.8112     1.0000     0.1888     0.9251     0.9251    -0.0000
 60 H      0.5290     1.0000     0.4710     0.7518     0.7518    -0.0000

  Mayer bond orders larger than 0.100000
B(  0-O ,  1-C ) :   1.8275 B(  1-C ,  2-C ) :   0.9521 B(  1-C , 13-N ) :   0.9658 
B(  2-C ,  3-H ) :   0.9245 B(  2-C ,  4-C ) :   0.9538 B(  2-C ,  9-C ) :   0.9427 
B(  4-C ,  5-C ) :   0.9466 B(  4-C , 12-H ) :   0.9300 B(  4-C , 30-C ) :   0.9593 
B(  5-C ,  6-C ) :   0.9938 B(  5-C ,  8-C ) :   0.9682 B(  5-C , 32-H ) :   0.9525 
B(  6-C ,  7-C ) :   1.9568 B(  6-C , 33-H ) :   0.9385 B(  7-C , 34-H ) :   0.9534 
B(  7-C , 35-H ) :   0.9512 B(  8-C ,  9-C ) :   0.9691 B(  8-C , 36-H ) :   0.9495 
B(  8-C , 37-H ) :   0.9485 B(  9-C , 10-C ) :   1.0106 B(  9-C , 38-H ) :   0.9389 
B( 10-C , 11-C ) :   1.9561 B( 10-C , 39-H ) :   0.9356 B( 11-C , 40-H ) :   0.9519 
B( 11-C , 41-H ) :   0.9518 B( 13-N , 14-C ) :   0.7947 B( 13-N , 30-C ) :   0.9965 
B( 14-C , 15-C ) :   0.9732 B( 14-C , 42-H ) :   0.9088 B( 14-C , 43-H ) :   0.9493 
B( 15-C , 16-C ) :   0.9705 B( 15-C , 44-H ) :   0.9448 B( 15-C , 45-H ) :   0.9450 
B( 16-C , 17-C ) :   0.9898 B( 16-C , 46-H ) :   0.9502 B( 16-C , 47-H ) :   0.9545 
B( 17-C , 18-O ) :   0.8127 B( 17-C , 48-H ) :   0.9517 B( 17-C , 49-H ) :   0.9257 
B( 18-O , 19-C ) :   0.8003 B( 19-C , 20-C ) :   0.9827 B( 19-C , 28-C ) :   0.9638 
B( 19-C , 50-H ) :   0.9342 B( 20-C , 21-O ) :   0.8061 B( 20-C , 22-C ) :   0.9303 
B( 20-C , 51-H ) :   0.9339 B( 21-O , 52-H ) :   0.6864 B( 22-C , 23-C ) :   0.9822 
B( 22-C , 25-O ) :   0.7960 B( 22-C , 53-H ) :   0.9345 B( 23-C , 24-O ) :   0.8742 
B( 23-C , 54-H ) :   0.9493 B( 23-C , 55-H ) :   0.9462 B( 24-O , 56-H ) :   0.7077 
B( 25-O , 26-C ) :   0.8417 B( 26-C , 27-O ) :   0.8760 B( 26-C , 28-C ) :   0.9488 
B( 26-C , 57-H ) :   0.9419 B( 27-O , 58-H ) :   0.7331 B( 28-C , 29-O ) :   0.8220 
B( 28-C , 59-H ) :   0.9324 B( 29-O , 60-H ) :   0.7370 B( 30-C , 31-O ) :   1.7386 


-------
TIMINGS
-------

Total SCF time: 0 days 0 hours 3 min 5 sec 

Total time                  ....     185.022 sec
Sum of individual times     ....     184.992 sec  (100.0%)

SCF preparation             ....       0.094 sec  (  0.1%)
Fock matrix formation       ....     184.290 sec  ( 99.6%)
  Startup                   ....       0.010 sec  (  0.0% of F)
  Coulomb+Exchange Fock     ....     184.062 sec  ( 99.9% of F)
Diagonalization             ....       0.000 sec  (  0.0%)
Density matrix formation    ....       0.030 sec  (  0.0%)
Total Energy calculation    ....       0.010 sec  (  0.0%)
Population analysis         ....       0.064 sec  (  0.0%)
Orbital Transformation      ....       0.041 sec  (  0.0%)
Orbital Orthonormalization  ....       0.000 sec  (  0.0%)
DIIS solution               ....       0.168 sec  (  0.1%)
SOSCF solution              ....       0.295 sec  (  0.2%)
Finished LeanSCF after 185.1 sec

Maximum memory used throughout the entire LEANSCF-calculation: 49.0 MB

-------------------------   --------------------
FINAL SINGLE POINT ENERGY     -1466.586269585625
-------------------------   --------------------

                                *** OPTIMIZATION RUN DONE ***


------------------------------------------------------------------------------
                              ORCA PROPERTY CALCULATIONS
------------------------------------------------------------------------------

GBWName                                 ... monomer_hf_opt.gbw
Number of atoms                         ...     61
Number of basis functions               ...    482
Max core memory                         ...   1024 MB

Electric properties:
Dipole moment                           ... YES
Quadrupole moment                       ...  NO
Static polarizability (Dipole/Dipole)   ...  NO
Static polarizability (Dipole/Quad.)    ...  NO
Static polarizability (Quad./Quad.)     ...  NO
Static polarizability (Velocity)        ...  NO

Atomic electric properties:
Dipole moment                           ...  NO
Quadrupole moment                       ...  NO
Static polarizability                   ...  NO

Choice of electric origin               ... Center of mass
Position of electric origin             ...     0.729780     0.043640     0.079400

General magnetic properties:
Magnetizability                         ...  NO

EPR properties:
g-Tensor (aka g-matrix)                 ...  NO
Zero-Field splitting spin-orbit         ...  NO
Zero-field splitting spin-spin          ...  NO
Hyperfine couplings                     ...  NO (   0 nuclei)
Quadrupole couplings                    ...  NO (   0 nuclei)
Contact density                         ...  NO (   0 nuclei)

NMR properties:
Chemical shifts                         ...  NO (   0 nuclei)
Spin-rotation constants                 ...  NO (   0 nuclei)
Spin-spin couplings                     ...  NO (   0 nuclei,    0 pairs)

Choice of magnetic origin               ... GIAO
Position of magnetic origin             ...     0.000000     0.000000     0.000000

Properties with geometric perturbations:
SCF Hessian                             ...  NO
IR spectrum                             ...  NO
VCD spectrum                            ...  NO
X-ray spectroscopy properties:
SCF XES/XAS/RIXS spectra                ...  NO


-------------
DIPOLE MOMENT
-------------

Method             : SCF
Type of density    : Electron Density
Multiplicity       :   1
Irrep              :   0
Energy             : -1466.5862695856249047 Eh
Relativity type    : 
Basis              : AO
                                X                 Y                 Z
Electronic contribution:     11.784489581      -0.251261967       4.674338901
Nuclear contribution   :    -14.594103775       0.458597688      -5.680464595
                        -----------------------------------------
Total Dipole Moment    :     -2.809614194       0.207335721      -1.006125694
                        -----------------------------------------
Magnitude (a.u.)       :      2.991522845
Magnitude (Debye)      :      7.603846784



--------------------
Rotational spectrum 
--------------------
 
Rotational constants in cm-1:             0.010543             0.002375             0.002299 
Rotational constants in MHz :           316.068072            71.205267            68.918841 

Dipole components along the rotational axes: 
x,y,z [a.u.] :     2.594900    -1.342214     0.643557 
x,y,z [Debye]:     6.595711    -3.411636     1.635793 

 

Dipole moment calculation done in   0.0 sec 

Maximum memory used throughout the entire PROP-calculation: 43.4 MB

--------------------------------
SUGGESTED CITATIONS FOR THIS RUN
--------------------------------

Below you find a list of papers that are relevant to this ORCA run
We neither can nor want to force you to cite these papers, but we appreciate if you do
You receive ORCA, which is the product of decades of hard work by many enthusiastic individuals, for free
The only thing we kindly ask in return is that you cite our papers,
We deeply appreciate it, if you show your appreciation for ORCA by not just citing the generic ORCA reference.

Please note that relegating all ORCA citations to the supporting information does *not* help us.
SI sections are not indexed - citations you put there will not count into any citation statistics
But we need these citations in order to attract the funding resources that allow us to do what we are doing

Therefore, if you are a happy ORCA user, please consider citing a few of the papers listed below in the main body of your paper

In addition to the list printed below, the program has created the file monomer_hf_opt.bibtex that contains the list in bibtex format
You can import this file easily into all common literature databanks and citation aid programs


List of essential papers. We consider these as the minimum necessary citations

  1. Neese,F.
     Software update: the ORCA program system, version 5.0
     WIRES Comput. Molec. Sci., 2022 12(1)e1606
     doi.org/10.1002/wcms.1606

List of papers to cite with high priority. The work reported in these papers was absolutely
necessary for this run to complete.
Our perspective: the developers of density functionals and basis sets usually get cited in chemistry papers
Good! But without the algorithms to do something with them, the functionals or basis sets would not do anything.
Hence, in our opinion, the algorithm design and method developments papers are equally worthy of getting cited

  1. Neese,F.
     The SHARK Integral Generation and Digestion System
     J. Comp. Chem., 2022  1-16
     doi.org/10.1002/jcc.26942

List of suggested additional citations. These are papers that are important in the 'surrounding' of 
of this run, or papers that preceded the highly important papers. If you like your results we are grateful for a citation.

  1. Neese,F.
     The ORCA program system
     WIRES Comput. Molec. Sci., 2012 2(1)73-78
     doi.org/10.1002/wcms.81
  2. Neese,F.
     Software update: the ORCA program system, version 4.0
     WIRES Comput. Molec. Sci., 2018 8(1)1-6
     doi.org/10.1002/wcms.1327
  3. Neese,F.; Wennmohs,F.; Becker,U.; Riplinger,C.
     The ORCA quantum chemistry program package
     J. Chem. Phys., 2020 152 Art. No. L224108
     doi.org/10.1063/5.0004608

List of optional additional citations

  1. Neese,F.
     Approximate second-order SCF convergence for spin unrestricted wavefunctions
     Chem. Phys. Lett., 2000 325(1-3)93-98
     doi.org/10.1016/s0009-2614(00)00662-x

Timings for individual modules:

Sum of individual times          ...     7855.868 sec (= 130.931 min)
Startup calculation              ...       69.339 sec (=   1.156 min)   0.9 %
SCF iterations                   ...     5211.807 sec (=  86.863 min)  66.3 %
Property calculations            ...        0.247 sec (=   0.004 min)   0.0 %
SCF Gradient evaluation          ...     2573.574 sec (=  42.893 min)  32.8 %
Geometry relaxation              ...        0.900 sec (=   0.015 min)   0.0 %
                             ****ORCA TERMINATED NORMALLY****
TOTAL RUN TIME: 0 days 2 hours 10 minutes 57 seconds 483 msec
