26
Coordinates from ORCA-job pyrene_hf_opt
  C          -3.51101000000000     -0.03964000000000      0.00637000000000
  C          -2.82769000000000      1.17607000000000      0.00745000000000
  C          -1.42522000000000      1.20783000000000      0.00127000000000
  C          -0.72083000000000      2.41968000000000     -0.00256000000000
  C           0.67644000000000      2.43408000000000     -0.00498000000000
  C           1.40590000000000      1.23742000000000     -0.00303000000000
  C           2.80874000000000      1.23451000000000     -0.00087000000000
  C           3.51715000000000      0.03329000000000      0.00021000000000
  C           2.83308000000000     -1.18198000000000     -0.00185000000000
  C           1.43090000000000     -1.21233000000000     -0.00353000000000
  C           0.72680000000000     -2.42405000000000     -0.00535000000000
  C          -0.67027000000000     -2.43860000000000     -0.00566000000000
  C          -1.39937000000000     -1.24179000000000     -0.00270000000000
  C          -2.80191000000000     -1.24028000000000     -0.00050000000000
  C          -0.70541000000000     -0.00944000000000     -0.00168000000000
  C           0.71152000000000      0.00546000000000     -0.00286000000000
  H          -4.59782000000000     -0.05147000000000      0.01060000000000
  H          -3.39954000000000      2.10119000000000      0.01370000000000
  H          -1.25539000000000      3.36672000000000     -0.00406000000000
  H           1.19142000000000      3.39242000000000     -0.00823000000000
  H           3.36125000000000      2.17137000000000      0.00073000000000
  H           4.60396000000000      0.04405000000000      0.00269000000000
  H           3.40412000000000     -2.10758000000000     -0.00155000000000
  H           1.26131000000000     -3.37126000000000     -0.00632000000000
  H          -1.18517000000000     -3.39670000000000     -0.00693000000000
  H          -3.35362000000000     -2.17767000000000     -0.00295000000000
